%%MatrixMarket matrix coordinate real general
256 256 2048
1 1 1.0
1 8 1.0
1 15 1.0
1 22 1.0
1 29 1.0
1 36 1.0
1 43 1.0
1 50 1.0
2 14 1.0
2 21 1.0
2 28 1.0
2 35 1.0
2 42 1.0
2 49 1.0
2 56 1.0
2 63 1.0
3 27 1.0
3 34 1.0
3 41 1.0
3 48 1.0
3 55 1.0
3 62 1.0
3 69 1.0
3 76 1.0
4 40 1.0
4 47 1.0
4 54 1.0
4 61 1.0
4 68 1.0
4 75 1.0
4 82 1.0
4 89 1.0
5 53 1.0
5 60 1.0
5 67 1.0
5 74 1.0
5 81 1.0
5 88 1.0
5 95 1.0
5 102 1.0
6 66 1.0
6 73 1.0
6 80 1.0
6 87 1.0
6 94 1.0
6 101 1.0
6 108 1.0
6 115 1.0
7 79 1.0
7 86 1.0
7 93 1.0
7 100 1.0
7 107 1.0
7 114 1.0
7 121 1.0
7 128 1.0
8 92 1.0
8 99 1.0
8 106 1.0
8 113 1.0
8 120 1.0
8 127 1.0
8 134 1.0
8 141 1.0
9 105 1.0
9 112 1.0
9 119 1.0
9 126 1.0
9 133 1.0
9 140 1.0
9 147 1.0
9 154 1.0
10 118 1.0
10 125 1.0
10 132 1.0
10 139 1.0
10 146 1.0
10 153 1.0
10 160 1.0
10 167 1.0
11 131 1.0
11 138 1.0
11 145 1.0
11 152 1.0
11 159 1.0
11 166 1.0
11 173 1.0
11 180 1.0
12 144 1.0
12 151 1.0
12 158 1.0
12 165 1.0
12 172 1.0
12 179 1.0
12 186 1.0
12 193 1.0
13 157 1.0
13 164 1.0
13 171 1.0
13 178 1.0
13 185 1.0
13 192 1.0
13 199 1.0
13 206 1.0
14 170 1.0
14 177 1.0
14 184 1.0
14 191 1.0
14 198 1.0
14 205 1.0
14 212 1.0
14 219 1.0
15 183 1.0
15 190 1.0
15 197 1.0
15 204 1.0
15 211 1.0
15 218 1.0
15 225 1.0
15 232 1.0
16 196 1.0
16 203 1.0
16 210 1.0
16 217 1.0
16 224 1.0
16 231 1.0
16 238 1.0
16 245 1.0
17 209 1.0
17 216 1.0
17 223 1.0
17 230 1.0
17 237 1.0
17 244 1.0
17 251 1.0
17 2 1.0
18 222 1.0
18 229 1.0
18 236 1.0
18 243 1.0
18 250 1.0
18 1 1.0
18 8 1.0
18 15 1.0
19 235 1.0
19 242 1.0
19 249 1.0
19 256 1.0
19 7 1.0
19 14 1.0
19 21 1.0
19 28 1.0
20 248 1.0
20 255 1.0
20 6 1.0
20 13 1.0
20 20 1.0
20 27 1.0
20 34 1.0
20 41 1.0
21 5 1.0
21 12 1.0
21 19 1.0
21 26 1.0
21 33 1.0
21 40 1.0
21 47 1.0
21 54 1.0
22 18 1.0
22 25 1.0
22 32 1.0
22 39 1.0
22 46 1.0
22 53 1.0
22 60 1.0
22 67 1.0
23 31 1.0
23 38 1.0
23 45 1.0
23 52 1.0
23 59 1.0
23 66 1.0
23 73 1.0
23 80 1.0
24 44 1.0
24 51 1.0
24 58 1.0
24 65 1.0
24 72 1.0
24 79 1.0
24 86 1.0
24 93 1.0
25 57 1.0
25 64 1.0
25 71 1.0
25 78 1.0
25 85 1.0
25 92 1.0
25 99 1.0
25 106 1.0
26 70 1.0
26 77 1.0
26 84 1.0
26 91 1.0
26 98 1.0
26 105 1.0
26 112 1.0
26 119 1.0
27 83 1.0
27 90 1.0
27 97 1.0
27 104 1.0
27 111 1.0
27 118 1.0
27 125 1.0
27 132 1.0
28 96 1.0
28 103 1.0
28 110 1.0
28 117 1.0
28 124 1.0
28 131 1.0
28 138 1.0
28 145 1.0
29 109 1.0
29 116 1.0
29 123 1.0
29 130 1.0
29 137 1.0
29 144 1.0
29 151 1.0
29 158 1.0
30 122 1.0
30 129 1.0
30 136 1.0
30 143 1.0
30 150 1.0
30 157 1.0
30 164 1.0
30 171 1.0
31 135 1.0
31 142 1.0
31 149 1.0
31 156 1.0
31 163 1.0
31 170 1.0
31 177 1.0
31 184 1.0
32 148 1.0
32 155 1.0
32 162 1.0
32 169 1.0
32 176 1.0
32 183 1.0
32 190 1.0
32 197 1.0
33 161 1.0
33 168 1.0
33 175 1.0
33 182 1.0
33 189 1.0
33 196 1.0
33 203 1.0
33 210 1.0
34 174 1.0
34 181 1.0
34 188 1.0
34 195 1.0
34 202 1.0
34 209 1.0
34 216 1.0
34 223 1.0
35 187 1.0
35 194 1.0
35 201 1.0
35 208 1.0
35 215 1.0
35 222 1.0
35 229 1.0
35 236 1.0
36 200 1.0
36 207 1.0
36 214 1.0
36 221 1.0
36 228 1.0
36 235 1.0
36 242 1.0
36 249 1.0
37 213 1.0
37 220 1.0
37 227 1.0
37 234 1.0
37 241 1.0
37 248 1.0
37 255 1.0
37 6 1.0
38 226 1.0
38 233 1.0
38 240 1.0
38 247 1.0
38 254 1.0
38 5 1.0
38 12 1.0
38 19 1.0
39 239 1.0
39 246 1.0
39 253 1.0
39 4 1.0
39 11 1.0
39 18 1.0
39 25 1.0
39 32 1.0
40 252 1.0
40 3 1.0
40 10 1.0
40 17 1.0
40 24 1.0
40 31 1.0
40 38 1.0
40 45 1.0
41 9 1.0
41 16 1.0
41 23 1.0
41 30 1.0
41 37 1.0
41 44 1.0
41 51 1.0
41 58 1.0
42 22 1.0
42 29 1.0
42 36 1.0
42 43 1.0
42 50 1.0
42 57 1.0
42 64 1.0
42 71 1.0
43 35 1.0
43 42 1.0
43 49 1.0
43 56 1.0
43 63 1.0
43 70 1.0
43 77 1.0
43 84 1.0
44 48 1.0
44 55 1.0
44 62 1.0
44 69 1.0
44 76 1.0
44 83 1.0
44 90 1.0
44 97 1.0
45 61 1.0
45 68 1.0
45 75 1.0
45 82 1.0
45 89 1.0
45 96 1.0
45 103 1.0
45 110 1.0
46 74 1.0
46 81 1.0
46 88 1.0
46 95 1.0
46 102 1.0
46 109 1.0
46 116 1.0
46 123 1.0
47 87 1.0
47 94 1.0
47 101 1.0
47 108 1.0
47 115 1.0
47 122 1.0
47 129 1.0
47 136 1.0
48 100 1.0
48 107 1.0
48 114 1.0
48 121 1.0
48 128 1.0
48 135 1.0
48 142 1.0
48 149 1.0
49 113 1.0
49 120 1.0
49 127 1.0
49 134 1.0
49 141 1.0
49 148 1.0
49 155 1.0
49 162 1.0
50 126 1.0
50 133 1.0
50 140 1.0
50 147 1.0
50 154 1.0
50 161 1.0
50 168 1.0
50 175 1.0
51 139 1.0
51 146 1.0
51 153 1.0
51 160 1.0
51 167 1.0
51 174 1.0
51 181 1.0
51 188 1.0
52 152 1.0
52 159 1.0
52 166 1.0
52 173 1.0
52 180 1.0
52 187 1.0
52 194 1.0
52 201 1.0
53 165 1.0
53 172 1.0
53 179 1.0
53 186 1.0
53 193 1.0
53 200 1.0
53 207 1.0
53 214 1.0
54 178 1.0
54 185 1.0
54 192 1.0
54 199 1.0
54 206 1.0
54 213 1.0
54 220 1.0
54 227 1.0
55 191 1.0
55 198 1.0
55 205 1.0
55 212 1.0
55 219 1.0
55 226 1.0
55 233 1.0
55 240 1.0
56 204 1.0
56 211 1.0
56 218 1.0
56 225 1.0
56 232 1.0
56 239 1.0
56 246 1.0
56 253 1.0
57 217 1.0
57 224 1.0
57 231 1.0
57 238 1.0
57 245 1.0
57 252 1.0
57 3 1.0
57 10 1.0
58 230 1.0
58 237 1.0
58 244 1.0
58 251 1.0
58 2 1.0
58 9 1.0
58 16 1.0
58 23 1.0
59 243 1.0
59 250 1.0
59 1 1.0
59 8 1.0
59 15 1.0
59 22 1.0
59 29 1.0
59 36 1.0
60 256 1.0
60 7 1.0
60 14 1.0
60 21 1.0
60 28 1.0
60 35 1.0
60 42 1.0
60 49 1.0
61 13 1.0
61 20 1.0
61 27 1.0
61 34 1.0
61 41 1.0
61 48 1.0
61 55 1.0
61 62 1.0
62 26 1.0
62 33 1.0
62 40 1.0
62 47 1.0
62 54 1.0
62 61 1.0
62 68 1.0
62 75 1.0
63 39 1.0
63 46 1.0
63 53 1.0
63 60 1.0
63 67 1.0
63 74 1.0
63 81 1.0
63 88 1.0
64 52 1.0
64 59 1.0
64 66 1.0
64 73 1.0
64 80 1.0
64 87 1.0
64 94 1.0
64 101 1.0
65 65 1.0
65 72 1.0
65 79 1.0
65 86 1.0
65 93 1.0
65 100 1.0
65 107 1.0
65 114 1.0
66 78 1.0
66 85 1.0
66 92 1.0
66 99 1.0
66 106 1.0
66 113 1.0
66 120 1.0
66 127 1.0
67 91 1.0
67 98 1.0
67 105 1.0
67 112 1.0
67 119 1.0
67 126 1.0
67 133 1.0
67 140 1.0
68 104 1.0
68 111 1.0
68 118 1.0
68 125 1.0
68 132 1.0
68 139 1.0
68 146 1.0
68 153 1.0
69 117 1.0
69 124 1.0
69 131 1.0
69 138 1.0
69 145 1.0
69 152 1.0
69 159 1.0
69 166 1.0
70 130 1.0
70 137 1.0
70 144 1.0
70 151 1.0
70 158 1.0
70 165 1.0
70 172 1.0
70 179 1.0
71 143 1.0
71 150 1.0
71 157 1.0
71 164 1.0
71 171 1.0
71 178 1.0
71 185 1.0
71 192 1.0
72 156 1.0
72 163 1.0
72 170 1.0
72 177 1.0
72 184 1.0
72 191 1.0
72 198 1.0
72 205 1.0
73 169 1.0
73 176 1.0
73 183 1.0
73 190 1.0
73 197 1.0
73 204 1.0
73 211 1.0
73 218 1.0
74 182 1.0
74 189 1.0
74 196 1.0
74 203 1.0
74 210 1.0
74 217 1.0
74 224 1.0
74 231 1.0
75 195 1.0
75 202 1.0
75 209 1.0
75 216 1.0
75 223 1.0
75 230 1.0
75 237 1.0
75 244 1.0
76 208 1.0
76 215 1.0
76 222 1.0
76 229 1.0
76 236 1.0
76 243 1.0
76 250 1.0
76 1 1.0
77 221 1.0
77 228 1.0
77 235 1.0
77 242 1.0
77 249 1.0
77 256 1.0
77 7 1.0
77 14 1.0
78 234 1.0
78 241 1.0
78 248 1.0
78 255 1.0
78 6 1.0
78 13 1.0
78 20 1.0
78 27 1.0
79 247 1.0
79 254 1.0
79 5 1.0
79 12 1.0
79 19 1.0
79 26 1.0
79 33 1.0
79 40 1.0
80 4 1.0
80 11 1.0
80 18 1.0
80 25 1.0
80 32 1.0
80 39 1.0
80 46 1.0
80 53 1.0
81 17 1.0
81 24 1.0
81 31 1.0
81 38 1.0
81 45 1.0
81 52 1.0
81 59 1.0
81 66 1.0
82 30 1.0
82 37 1.0
82 44 1.0
82 51 1.0
82 58 1.0
82 65 1.0
82 72 1.0
82 79 1.0
83 43 1.0
83 50 1.0
83 57 1.0
83 64 1.0
83 71 1.0
83 78 1.0
83 85 1.0
83 92 1.0
84 56 1.0
84 63 1.0
84 70 1.0
84 77 1.0
84 84 1.0
84 91 1.0
84 98 1.0
84 105 1.0
85 69 1.0
85 76 1.0
85 83 1.0
85 90 1.0
85 97 1.0
85 104 1.0
85 111 1.0
85 118 1.0
86 82 1.0
86 89 1.0
86 96 1.0
86 103 1.0
86 110 1.0
86 117 1.0
86 124 1.0
86 131 1.0
87 95 1.0
87 102 1.0
87 109 1.0
87 116 1.0
87 123 1.0
87 130 1.0
87 137 1.0
87 144 1.0
88 108 1.0
88 115 1.0
88 122 1.0
88 129 1.0
88 136 1.0
88 143 1.0
88 150 1.0
88 157 1.0
89 121 1.0
89 128 1.0
89 135 1.0
89 142 1.0
89 149 1.0
89 156 1.0
89 163 1.0
89 170 1.0
90 134 1.0
90 141 1.0
90 148 1.0
90 155 1.0
90 162 1.0
90 169 1.0
90 176 1.0
90 183 1.0
91 147 1.0
91 154 1.0
91 161 1.0
91 168 1.0
91 175 1.0
91 182 1.0
91 189 1.0
91 196 1.0
92 160 1.0
92 167 1.0
92 174 1.0
92 181 1.0
92 188 1.0
92 195 1.0
92 202 1.0
92 209 1.0
93 173 1.0
93 180 1.0
93 187 1.0
93 194 1.0
93 201 1.0
93 208 1.0
93 215 1.0
93 222 1.0
94 186 1.0
94 193 1.0
94 200 1.0
94 207 1.0
94 214 1.0
94 221 1.0
94 228 1.0
94 235 1.0
95 199 1.0
95 206 1.0
95 213 1.0
95 220 1.0
95 227 1.0
95 234 1.0
95 241 1.0
95 248 1.0
96 212 1.0
96 219 1.0
96 226 1.0
96 233 1.0
96 240 1.0
96 247 1.0
96 254 1.0
96 5 1.0
97 225 1.0
97 232 1.0
97 239 1.0
97 246 1.0
97 253 1.0
97 4 1.0
97 11 1.0
97 18 1.0
98 238 1.0
98 245 1.0
98 252 1.0
98 3 1.0
98 10 1.0
98 17 1.0
98 24 1.0
98 31 1.0
99 251 1.0
99 2 1.0
99 9 1.0
99 16 1.0
99 23 1.0
99 30 1.0
99 37 1.0
99 44 1.0
100 8 1.0
100 15 1.0
100 22 1.0
100 29 1.0
100 36 1.0
100 43 1.0
100 50 1.0
100 57 1.0
101 21 1.0
101 28 1.0
101 35 1.0
101 42 1.0
101 49 1.0
101 56 1.0
101 63 1.0
101 70 1.0
102 34 1.0
102 41 1.0
102 48 1.0
102 55 1.0
102 62 1.0
102 69 1.0
102 76 1.0
102 83 1.0
103 47 1.0
103 54 1.0
103 61 1.0
103 68 1.0
103 75 1.0
103 82 1.0
103 89 1.0
103 96 1.0
104 60 1.0
104 67 1.0
104 74 1.0
104 81 1.0
104 88 1.0
104 95 1.0
104 102 1.0
104 109 1.0
105 73 1.0
105 80 1.0
105 87 1.0
105 94 1.0
105 101 1.0
105 108 1.0
105 115 1.0
105 122 1.0
106 86 1.0
106 93 1.0
106 100 1.0
106 107 1.0
106 114 1.0
106 121 1.0
106 128 1.0
106 135 1.0
107 99 1.0
107 106 1.0
107 113 1.0
107 120 1.0
107 127 1.0
107 134 1.0
107 141 1.0
107 148 1.0
108 112 1.0
108 119 1.0
108 126 1.0
108 133 1.0
108 140 1.0
108 147 1.0
108 154 1.0
108 161 1.0
109 125 1.0
109 132 1.0
109 139 1.0
109 146 1.0
109 153 1.0
109 160 1.0
109 167 1.0
109 174 1.0
110 138 1.0
110 145 1.0
110 152 1.0
110 159 1.0
110 166 1.0
110 173 1.0
110 180 1.0
110 187 1.0
111 151 1.0
111 158 1.0
111 165 1.0
111 172 1.0
111 179 1.0
111 186 1.0
111 193 1.0
111 200 1.0
112 164 1.0
112 171 1.0
112 178 1.0
112 185 1.0
112 192 1.0
112 199 1.0
112 206 1.0
112 213 1.0
113 177 1.0
113 184 1.0
113 191 1.0
113 198 1.0
113 205 1.0
113 212 1.0
113 219 1.0
113 226 1.0
114 190 1.0
114 197 1.0
114 204 1.0
114 211 1.0
114 218 1.0
114 225 1.0
114 232 1.0
114 239 1.0
115 203 1.0
115 210 1.0
115 217 1.0
115 224 1.0
115 231 1.0
115 238 1.0
115 245 1.0
115 252 1.0
116 216 1.0
116 223 1.0
116 230 1.0
116 237 1.0
116 244 1.0
116 251 1.0
116 2 1.0
116 9 1.0
117 229 1.0
117 236 1.0
117 243 1.0
117 250 1.0
117 1 1.0
117 8 1.0
117 15 1.0
117 22 1.0
118 242 1.0
118 249 1.0
118 256 1.0
118 7 1.0
118 14 1.0
118 21 1.0
118 28 1.0
118 35 1.0
119 255 1.0
119 6 1.0
119 13 1.0
119 20 1.0
119 27 1.0
119 34 1.0
119 41 1.0
119 48 1.0
120 12 1.0
120 19 1.0
120 26 1.0
120 33 1.0
120 40 1.0
120 47 1.0
120 54 1.0
120 61 1.0
121 25 1.0
121 32 1.0
121 39 1.0
121 46 1.0
121 53 1.0
121 60 1.0
121 67 1.0
121 74 1.0
122 38 1.0
122 45 1.0
122 52 1.0
122 59 1.0
122 66 1.0
122 73 1.0
122 80 1.0
122 87 1.0
123 51 1.0
123 58 1.0
123 65 1.0
123 72 1.0
123 79 1.0
123 86 1.0
123 93 1.0
123 100 1.0
124 64 1.0
124 71 1.0
124 78 1.0
124 85 1.0
124 92 1.0
124 99 1.0
124 106 1.0
124 113 1.0
125 77 1.0
125 84 1.0
125 91 1.0
125 98 1.0
125 105 1.0
125 112 1.0
125 119 1.0
125 126 1.0
126 90 1.0
126 97 1.0
126 104 1.0
126 111 1.0
126 118 1.0
126 125 1.0
126 132 1.0
126 139 1.0
127 103 1.0
127 110 1.0
127 117 1.0
127 124 1.0
127 131 1.0
127 138 1.0
127 145 1.0
127 152 1.0
128 116 1.0
128 123 1.0
128 130 1.0
128 137 1.0
128 144 1.0
128 151 1.0
128 158 1.0
128 165 1.0
129 129 1.0
129 136 1.0
129 143 1.0
129 150 1.0
129 157 1.0
129 164 1.0
129 171 1.0
129 178 1.0
130 142 1.0
130 149 1.0
130 156 1.0
130 163 1.0
130 170 1.0
130 177 1.0
130 184 1.0
130 191 1.0
131 155 1.0
131 162 1.0
131 169 1.0
131 176 1.0
131 183 1.0
131 190 1.0
131 197 1.0
131 204 1.0
132 168 1.0
132 175 1.0
132 182 1.0
132 189 1.0
132 196 1.0
132 203 1.0
132 210 1.0
132 217 1.0
133 181 1.0
133 188 1.0
133 195 1.0
133 202 1.0
133 209 1.0
133 216 1.0
133 223 1.0
133 230 1.0
134 194 1.0
134 201 1.0
134 208 1.0
134 215 1.0
134 222 1.0
134 229 1.0
134 236 1.0
134 243 1.0
135 207 1.0
135 214 1.0
135 221 1.0
135 228 1.0
135 235 1.0
135 242 1.0
135 249 1.0
135 256 1.0
136 220 1.0
136 227 1.0
136 234 1.0
136 241 1.0
136 248 1.0
136 255 1.0
136 6 1.0
136 13 1.0
137 233 1.0
137 240 1.0
137 247 1.0
137 254 1.0
137 5 1.0
137 12 1.0
137 19 1.0
137 26 1.0
138 246 1.0
138 253 1.0
138 4 1.0
138 11 1.0
138 18 1.0
138 25 1.0
138 32 1.0
138 39 1.0
139 3 1.0
139 10 1.0
139 17 1.0
139 24 1.0
139 31 1.0
139 38 1.0
139 45 1.0
139 52 1.0
140 16 1.0
140 23 1.0
140 30 1.0
140 37 1.0
140 44 1.0
140 51 1.0
140 58 1.0
140 65 1.0
141 29 1.0
141 36 1.0
141 43 1.0
141 50 1.0
141 57 1.0
141 64 1.0
141 71 1.0
141 78 1.0
142 42 1.0
142 49 1.0
142 56 1.0
142 63 1.0
142 70 1.0
142 77 1.0
142 84 1.0
142 91 1.0
143 55 1.0
143 62 1.0
143 69 1.0
143 76 1.0
143 83 1.0
143 90 1.0
143 97 1.0
143 104 1.0
144 68 1.0
144 75 1.0
144 82 1.0
144 89 1.0
144 96 1.0
144 103 1.0
144 110 1.0
144 117 1.0
145 81 1.0
145 88 1.0
145 95 1.0
145 102 1.0
145 109 1.0
145 116 1.0
145 123 1.0
145 130 1.0
146 94 1.0
146 101 1.0
146 108 1.0
146 115 1.0
146 122 1.0
146 129 1.0
146 136 1.0
146 143 1.0
147 107 1.0
147 114 1.0
147 121 1.0
147 128 1.0
147 135 1.0
147 142 1.0
147 149 1.0
147 156 1.0
148 120 1.0
148 127 1.0
148 134 1.0
148 141 1.0
148 148 1.0
148 155 1.0
148 162 1.0
148 169 1.0
149 133 1.0
149 140 1.0
149 147 1.0
149 154 1.0
149 161 1.0
149 168 1.0
149 175 1.0
149 182 1.0
150 146 1.0
150 153 1.0
150 160 1.0
150 167 1.0
150 174 1.0
150 181 1.0
150 188 1.0
150 195 1.0
151 159 1.0
151 166 1.0
151 173 1.0
151 180 1.0
151 187 1.0
151 194 1.0
151 201 1.0
151 208 1.0
152 172 1.0
152 179 1.0
152 186 1.0
152 193 1.0
152 200 1.0
152 207 1.0
152 214 1.0
152 221 1.0
153 185 1.0
153 192 1.0
153 199 1.0
153 206 1.0
153 213 1.0
153 220 1.0
153 227 1.0
153 234 1.0
154 198 1.0
154 205 1.0
154 212 1.0
154 219 1.0
154 226 1.0
154 233 1.0
154 240 1.0
154 247 1.0
155 211 1.0
155 218 1.0
155 225 1.0
155 232 1.0
155 239 1.0
155 246 1.0
155 253 1.0
155 4 1.0
156 224 1.0
156 231 1.0
156 238 1.0
156 245 1.0
156 252 1.0
156 3 1.0
156 10 1.0
156 17 1.0
157 237 1.0
157 244 1.0
157 251 1.0
157 2 1.0
157 9 1.0
157 16 1.0
157 23 1.0
157 30 1.0
158 250 1.0
158 1 1.0
158 8 1.0
158 15 1.0
158 22 1.0
158 29 1.0
158 36 1.0
158 43 1.0
159 7 1.0
159 14 1.0
159 21 1.0
159 28 1.0
159 35 1.0
159 42 1.0
159 49 1.0
159 56 1.0
160 20 1.0
160 27 1.0
160 34 1.0
160 41 1.0
160 48 1.0
160 55 1.0
160 62 1.0
160 69 1.0
161 33 1.0
161 40 1.0
161 47 1.0
161 54 1.0
161 61 1.0
161 68 1.0
161 75 1.0
161 82 1.0
162 46 1.0
162 53 1.0
162 60 1.0
162 67 1.0
162 74 1.0
162 81 1.0
162 88 1.0
162 95 1.0
163 59 1.0
163 66 1.0
163 73 1.0
163 80 1.0
163 87 1.0
163 94 1.0
163 101 1.0
163 108 1.0
164 72 1.0
164 79 1.0
164 86 1.0
164 93 1.0
164 100 1.0
164 107 1.0
164 114 1.0
164 121 1.0
165 85 1.0
165 92 1.0
165 99 1.0
165 106 1.0
165 113 1.0
165 120 1.0
165 127 1.0
165 134 1.0
166 98 1.0
166 105 1.0
166 112 1.0
166 119 1.0
166 126 1.0
166 133 1.0
166 140 1.0
166 147 1.0
167 111 1.0
167 118 1.0
167 125 1.0
167 132 1.0
167 139 1.0
167 146 1.0
167 153 1.0
167 160 1.0
168 124 1.0
168 131 1.0
168 138 1.0
168 145 1.0
168 152 1.0
168 159 1.0
168 166 1.0
168 173 1.0
169 137 1.0
169 144 1.0
169 151 1.0
169 158 1.0
169 165 1.0
169 172 1.0
169 179 1.0
169 186 1.0
170 150 1.0
170 157 1.0
170 164 1.0
170 171 1.0
170 178 1.0
170 185 1.0
170 192 1.0
170 199 1.0
171 163 1.0
171 170 1.0
171 177 1.0
171 184 1.0
171 191 1.0
171 198 1.0
171 205 1.0
171 212 1.0
172 176 1.0
172 183 1.0
172 190 1.0
172 197 1.0
172 204 1.0
172 211 1.0
172 218 1.0
172 225 1.0
173 189 1.0
173 196 1.0
173 203 1.0
173 210 1.0
173 217 1.0
173 224 1.0
173 231 1.0
173 238 1.0
174 202 1.0
174 209 1.0
174 216 1.0
174 223 1.0
174 230 1.0
174 237 1.0
174 244 1.0
174 251 1.0
175 215 1.0
175 222 1.0
175 229 1.0
175 236 1.0
175 243 1.0
175 250 1.0
175 1 1.0
175 8 1.0
176 228 1.0
176 235 1.0
176 242 1.0
176 249 1.0
176 256 1.0
176 7 1.0
176 14 1.0
176 21 1.0
177 241 1.0
177 248 1.0
177 255 1.0
177 6 1.0
177 13 1.0
177 20 1.0
177 27 1.0
177 34 1.0
178 254 1.0
178 5 1.0
178 12 1.0
178 19 1.0
178 26 1.0
178 33 1.0
178 40 1.0
178 47 1.0
179 11 1.0
179 18 1.0
179 25 1.0
179 32 1.0
179 39 1.0
179 46 1.0
179 53 1.0
179 60 1.0
180 24 1.0
180 31 1.0
180 38 1.0
180 45 1.0
180 52 1.0
180 59 1.0
180 66 1.0
180 73 1.0
181 37 1.0
181 44 1.0
181 51 1.0
181 58 1.0
181 65 1.0
181 72 1.0
181 79 1.0
181 86 1.0
182 50 1.0
182 57 1.0
182 64 1.0
182 71 1.0
182 78 1.0
182 85 1.0
182 92 1.0
182 99 1.0
183 63 1.0
183 70 1.0
183 77 1.0
183 84 1.0
183 91 1.0
183 98 1.0
183 105 1.0
183 112 1.0
184 76 1.0
184 83 1.0
184 90 1.0
184 97 1.0
184 104 1.0
184 111 1.0
184 118 1.0
184 125 1.0
185 89 1.0
185 96 1.0
185 103 1.0
185 110 1.0
185 117 1.0
185 124 1.0
185 131 1.0
185 138 1.0
186 102 1.0
186 109 1.0
186 116 1.0
186 123 1.0
186 130 1.0
186 137 1.0
186 144 1.0
186 151 1.0
187 115 1.0
187 122 1.0
187 129 1.0
187 136 1.0
187 143 1.0
187 150 1.0
187 157 1.0
187 164 1.0
188 128 1.0
188 135 1.0
188 142 1.0
188 149 1.0
188 156 1.0
188 163 1.0
188 170 1.0
188 177 1.0
189 141 1.0
189 148 1.0
189 155 1.0
189 162 1.0
189 169 1.0
189 176 1.0
189 183 1.0
189 190 1.0
190 154 1.0
190 161 1.0
190 168 1.0
190 175 1.0
190 182 1.0
190 189 1.0
190 196 1.0
190 203 1.0
191 167 1.0
191 174 1.0
191 181 1.0
191 188 1.0
191 195 1.0
191 202 1.0
191 209 1.0
191 216 1.0
192 180 1.0
192 187 1.0
192 194 1.0
192 201 1.0
192 208 1.0
192 215 1.0
192 222 1.0
192 229 1.0
193 193 1.0
193 200 1.0
193 207 1.0
193 214 1.0
193 221 1.0
193 228 1.0
193 235 1.0
193 242 1.0
194 206 1.0
194 213 1.0
194 220 1.0
194 227 1.0
194 234 1.0
194 241 1.0
194 248 1.0
194 255 1.0
195 219 1.0
195 226 1.0
195 233 1.0
195 240 1.0
195 247 1.0
195 254 1.0
195 5 1.0
195 12 1.0
196 232 1.0
196 239 1.0
196 246 1.0
196 253 1.0
196 4 1.0
196 11 1.0
196 18 1.0
196 25 1.0
197 245 1.0
197 252 1.0
197 3 1.0
197 10 1.0
197 17 1.0
197 24 1.0
197 31 1.0
197 38 1.0
198 2 1.0
198 9 1.0
198 16 1.0
198 23 1.0
198 30 1.0
198 37 1.0
198 44 1.0
198 51 1.0
199 15 1.0
199 22 1.0
199 29 1.0
199 36 1.0
199 43 1.0
199 50 1.0
199 57 1.0
199 64 1.0
200 28 1.0
200 35 1.0
200 42 1.0
200 49 1.0
200 56 1.0
200 63 1.0
200 70 1.0
200 77 1.0
201 41 1.0
201 48 1.0
201 55 1.0
201 62 1.0
201 69 1.0
201 76 1.0
201 83 1.0
201 90 1.0
202 54 1.0
202 61 1.0
202 68 1.0
202 75 1.0
202 82 1.0
202 89 1.0
202 96 1.0
202 103 1.0
203 67 1.0
203 74 1.0
203 81 1.0
203 88 1.0
203 95 1.0
203 102 1.0
203 109 1.0
203 116 1.0
204 80 1.0
204 87 1.0
204 94 1.0
204 101 1.0
204 108 1.0
204 115 1.0
204 122 1.0
204 129 1.0
205 93 1.0
205 100 1.0
205 107 1.0
205 114 1.0
205 121 1.0
205 128 1.0
205 135 1.0
205 142 1.0
206 106 1.0
206 113 1.0
206 120 1.0
206 127 1.0
206 134 1.0
206 141 1.0
206 148 1.0
206 155 1.0
207 119 1.0
207 126 1.0
207 133 1.0
207 140 1.0
207 147 1.0
207 154 1.0
207 161 1.0
207 168 1.0
208 132 1.0
208 139 1.0
208 146 1.0
208 153 1.0
208 160 1.0
208 167 1.0
208 174 1.0
208 181 1.0
209 145 1.0
209 152 1.0
209 159 1.0
209 166 1.0
209 173 1.0
209 180 1.0
209 187 1.0
209 194 1.0
210 158 1.0
210 165 1.0
210 172 1.0
210 179 1.0
210 186 1.0
210 193 1.0
210 200 1.0
210 207 1.0
211 171 1.0
211 178 1.0
211 185 1.0
211 192 1.0
211 199 1.0
211 206 1.0
211 213 1.0
211 220 1.0
212 184 1.0
212 191 1.0
212 198 1.0
212 205 1.0
212 212 1.0
212 219 1.0
212 226 1.0
212 233 1.0
213 197 1.0
213 204 1.0
213 211 1.0
213 218 1.0
213 225 1.0
213 232 1.0
213 239 1.0
213 246 1.0
214 210 1.0
214 217 1.0
214 224 1.0
214 231 1.0
214 238 1.0
214 245 1.0
214 252 1.0
214 3 1.0
215 223 1.0
215 230 1.0
215 237 1.0
215 244 1.0
215 251 1.0
215 2 1.0
215 9 1.0
215 16 1.0
216 236 1.0
216 243 1.0
216 250 1.0
216 1 1.0
216 8 1.0
216 15 1.0
216 22 1.0
216 29 1.0
217 249 1.0
217 256 1.0
217 7 1.0
217 14 1.0
217 21 1.0
217 28 1.0
217 35 1.0
217 42 1.0
218 6 1.0
218 13 1.0
218 20 1.0
218 27 1.0
218 34 1.0
218 41 1.0
218 48 1.0
218 55 1.0
219 19 1.0
219 26 1.0
219 33 1.0
219 40 1.0
219 47 1.0
219 54 1.0
219 61 1.0
219 68 1.0
220 32 1.0
220 39 1.0
220 46 1.0
220 53 1.0
220 60 1.0
220 67 1.0
220 74 1.0
220 81 1.0
221 45 1.0
221 52 1.0
221 59 1.0
221 66 1.0
221 73 1.0
221 80 1.0
221 87 1.0
221 94 1.0
222 58 1.0
222 65 1.0
222 72 1.0
222 79 1.0
222 86 1.0
222 93 1.0
222 100 1.0
222 107 1.0
223 71 1.0
223 78 1.0
223 85 1.0
223 92 1.0
223 99 1.0
223 106 1.0
223 113 1.0
223 120 1.0
224 84 1.0
224 91 1.0
224 98 1.0
224 105 1.0
224 112 1.0
224 119 1.0
224 126 1.0
224 133 1.0
225 97 1.0
225 104 1.0
225 111 1.0
225 118 1.0
225 125 1.0
225 132 1.0
225 139 1.0
225 146 1.0
226 110 1.0
226 117 1.0
226 124 1.0
226 131 1.0
226 138 1.0
226 145 1.0
226 152 1.0
226 159 1.0
227 123 1.0
227 130 1.0
227 137 1.0
227 144 1.0
227 151 1.0
227 158 1.0
227 165 1.0
227 172 1.0
228 136 1.0
228 143 1.0
228 150 1.0
228 157 1.0
228 164 1.0
228 171 1.0
228 178 1.0
228 185 1.0
229 149 1.0
229 156 1.0
229 163 1.0
229 170 1.0
229 177 1.0
229 184 1.0
229 191 1.0
229 198 1.0
230 162 1.0
230 169 1.0
230 176 1.0
230 183 1.0
230 190 1.0
230 197 1.0
230 204 1.0
230 211 1.0
231 175 1.0
231 182 1.0
231 189 1.0
231 196 1.0
231 203 1.0
231 210 1.0
231 217 1.0
231 224 1.0
232 188 1.0
232 195 1.0
232 202 1.0
232 209 1.0
232 216 1.0
232 223 1.0
232 230 1.0
232 237 1.0
233 201 1.0
233 208 1.0
233 215 1.0
233 222 1.0
233 229 1.0
233 236 1.0
233 243 1.0
233 250 1.0
234 214 1.0
234 221 1.0
234 228 1.0
234 235 1.0
234 242 1.0
234 249 1.0
234 256 1.0
234 7 1.0
235 227 1.0
235 234 1.0
235 241 1.0
235 248 1.0
235 255 1.0
235 6 1.0
235 13 1.0
235 20 1.0
236 240 1.0
236 247 1.0
236 254 1.0
236 5 1.0
236 12 1.0
236 19 1.0
236 26 1.0
236 33 1.0
237 253 1.0
237 4 1.0
237 11 1.0
237 18 1.0
237 25 1.0
237 32 1.0
237 39 1.0
237 46 1.0
238 10 1.0
238 17 1.0
238 24 1.0
238 31 1.0
238 38 1.0
238 45 1.0
238 52 1.0
238 59 1.0
239 23 1.0
239 30 1.0
239 37 1.0
239 44 1.0
239 51 1.0
239 58 1.0
239 65 1.0
239 72 1.0
240 36 1.0
240 43 1.0
240 50 1.0
240 57 1.0
240 64 1.0
240 71 1.0
240 78 1.0
240 85 1.0
241 49 1.0
241 56 1.0
241 63 1.0
241 70 1.0
241 77 1.0
241 84 1.0
241 91 1.0
241 98 1.0
242 62 1.0
242 69 1.0
242 76 1.0
242 83 1.0
242 90 1.0
242 97 1.0
242 104 1.0
242 111 1.0
243 75 1.0
243 82 1.0
243 89 1.0
243 96 1.0
243 103 1.0
243 110 1.0
243 117 1.0
243 124 1.0
244 88 1.0
244 95 1.0
244 102 1.0
244 109 1.0
244 116 1.0
244 123 1.0
244 130 1.0
244 137 1.0
245 101 1.0
245 108 1.0
245 115 1.0
245 122 1.0
245 129 1.0
245 136 1.0
245 143 1.0
245 150 1.0
246 114 1.0
246 121 1.0
246 128 1.0
246 135 1.0
246 142 1.0
246 149 1.0
246 156 1.0
246 163 1.0
247 127 1.0
247 134 1.0
247 141 1.0
247 148 1.0
247 155 1.0
247 162 1.0
247 169 1.0
247 176 1.0
248 140 1.0
248 147 1.0
248 154 1.0
248 161 1.0
248 168 1.0
248 175 1.0
248 182 1.0
248 189 1.0
249 153 1.0
249 160 1.0
249 167 1.0
249 174 1.0
249 181 1.0
249 188 1.0
249 195 1.0
249 202 1.0
250 166 1.0
250 173 1.0
250 180 1.0
250 187 1.0
250 194 1.0
250 201 1.0
250 208 1.0
250 215 1.0
251 179 1.0
251 186 1.0
251 193 1.0
251 200 1.0
251 207 1.0
251 214 1.0
251 221 1.0
251 228 1.0
252 192 1.0
252 199 1.0
252 206 1.0
252 213 1.0
252 220 1.0
252 227 1.0
252 234 1.0
252 241 1.0
253 205 1.0
253 212 1.0
253 219 1.0
253 226 1.0
253 233 1.0
253 240 1.0
253 247 1.0
253 254 1.0
254 218 1.0
254 225 1.0
254 232 1.0
254 239 1.0
254 246 1.0
254 253 1.0
254 4 1.0
254 11 1.0
255 231 1.0
255 238 1.0
255 245 1.0
255 252 1.0
255 3 1.0
255 10 1.0
255 17 1.0
255 24 1.0
256 244 1.0
256 251 1.0
256 2 1.0
256 9 1.0
256 16 1.0
256 23 1.0
256 30 1.0
256 37 1.0
