%%MatrixMarket matrix coordinate real general
1024 1024 16384
1 1 1.0
1 8 1.0
1 15 1.0
1 22 1.0
1 29 1.0
1 36 1.0
1 43 1.0
1 50 1.0
1 57 1.0
1 64 1.0
1 71 1.0
1 78 1.0
1 85 1.0
1 92 1.0
1 99 1.0
1 106 1.0
2 14 1.0
2 21 1.0
2 28 1.0
2 35 1.0
2 42 1.0
2 49 1.0
2 56 1.0
2 63 1.0
2 70 1.0
2 77 1.0
2 84 1.0
2 91 1.0
2 98 1.0
2 105 1.0
2 112 1.0
2 119 1.0
3 27 1.0
3 34 1.0
3 41 1.0
3 48 1.0
3 55 1.0
3 62 1.0
3 69 1.0
3 76 1.0
3 83 1.0
3 90 1.0
3 97 1.0
3 104 1.0
3 111 1.0
3 118 1.0
3 125 1.0
3 132 1.0
4 40 1.0
4 47 1.0
4 54 1.0
4 61 1.0
4 68 1.0
4 75 1.0
4 82 1.0
4 89 1.0
4 96 1.0
4 103 1.0
4 110 1.0
4 117 1.0
4 124 1.0
4 131 1.0
4 138 1.0
4 145 1.0
5 53 1.0
5 60 1.0
5 67 1.0
5 74 1.0
5 81 1.0
5 88 1.0
5 95 1.0
5 102 1.0
5 109 1.0
5 116 1.0
5 123 1.0
5 130 1.0
5 137 1.0
5 144 1.0
5 151 1.0
5 158 1.0
6 66 1.0
6 73 1.0
6 80 1.0
6 87 1.0
6 94 1.0
6 101 1.0
6 108 1.0
6 115 1.0
6 122 1.0
6 129 1.0
6 136 1.0
6 143 1.0
6 150 1.0
6 157 1.0
6 164 1.0
6 171 1.0
7 79 1.0
7 86 1.0
7 93 1.0
7 100 1.0
7 107 1.0
7 114 1.0
7 121 1.0
7 128 1.0
7 135 1.0
7 142 1.0
7 149 1.0
7 156 1.0
7 163 1.0
7 170 1.0
7 177 1.0
7 184 1.0
8 92 1.0
8 99 1.0
8 106 1.0
8 113 1.0
8 120 1.0
8 127 1.0
8 134 1.0
8 141 1.0
8 148 1.0
8 155 1.0
8 162 1.0
8 169 1.0
8 176 1.0
8 183 1.0
8 190 1.0
8 197 1.0
9 105 1.0
9 112 1.0
9 119 1.0
9 126 1.0
9 133 1.0
9 140 1.0
9 147 1.0
9 154 1.0
9 161 1.0
9 168 1.0
9 175 1.0
9 182 1.0
9 189 1.0
9 196 1.0
9 203 1.0
9 210 1.0
10 118 1.0
10 125 1.0
10 132 1.0
10 139 1.0
10 146 1.0
10 153 1.0
10 160 1.0
10 167 1.0
10 174 1.0
10 181 1.0
10 188 1.0
10 195 1.0
10 202 1.0
10 209 1.0
10 216 1.0
10 223 1.0
11 131 1.0
11 138 1.0
11 145 1.0
11 152 1.0
11 159 1.0
11 166 1.0
11 173 1.0
11 180 1.0
11 187 1.0
11 194 1.0
11 201 1.0
11 208 1.0
11 215 1.0
11 222 1.0
11 229 1.0
11 236 1.0
12 144 1.0
12 151 1.0
12 158 1.0
12 165 1.0
12 172 1.0
12 179 1.0
12 186 1.0
12 193 1.0
12 200 1.0
12 207 1.0
12 214 1.0
12 221 1.0
12 228 1.0
12 235 1.0
12 242 1.0
12 249 1.0
13 157 1.0
13 164 1.0
13 171 1.0
13 178 1.0
13 185 1.0
13 192 1.0
13 199 1.0
13 206 1.0
13 213 1.0
13 220 1.0
13 227 1.0
13 234 1.0
13 241 1.0
13 248 1.0
13 255 1.0
13 262 1.0
14 170 1.0
14 177 1.0
14 184 1.0
14 191 1.0
14 198 1.0
14 205 1.0
14 212 1.0
14 219 1.0
14 226 1.0
14 233 1.0
14 240 1.0
14 247 1.0
14 254 1.0
14 261 1.0
14 268 1.0
14 275 1.0
15 183 1.0
15 190 1.0
15 197 1.0
15 204 1.0
15 211 1.0
15 218 1.0
15 225 1.0
15 232 1.0
15 239 1.0
15 246 1.0
15 253 1.0
15 260 1.0
15 267 1.0
15 274 1.0
15 281 1.0
15 288 1.0
16 196 1.0
16 203 1.0
16 210 1.0
16 217 1.0
16 224 1.0
16 231 1.0
16 238 1.0
16 245 1.0
16 252 1.0
16 259 1.0
16 266 1.0
16 273 1.0
16 280 1.0
16 287 1.0
16 294 1.0
16 301 1.0
17 209 1.0
17 216 1.0
17 223 1.0
17 230 1.0
17 237 1.0
17 244 1.0
17 251 1.0
17 258 1.0
17 265 1.0
17 272 1.0
17 279 1.0
17 286 1.0
17 293 1.0
17 300 1.0
17 307 1.0
17 314 1.0
18 222 1.0
18 229 1.0
18 236 1.0
18 243 1.0
18 250 1.0
18 257 1.0
18 264 1.0
18 271 1.0
18 278 1.0
18 285 1.0
18 292 1.0
18 299 1.0
18 306 1.0
18 313 1.0
18 320 1.0
18 327 1.0
19 235 1.0
19 242 1.0
19 249 1.0
19 256 1.0
19 263 1.0
19 270 1.0
19 277 1.0
19 284 1.0
19 291 1.0
19 298 1.0
19 305 1.0
19 312 1.0
19 319 1.0
19 326 1.0
19 333 1.0
19 340 1.0
20 248 1.0
20 255 1.0
20 262 1.0
20 269 1.0
20 276 1.0
20 283 1.0
20 290 1.0
20 297 1.0
20 304 1.0
20 311 1.0
20 318 1.0
20 325 1.0
20 332 1.0
20 339 1.0
20 346 1.0
20 353 1.0
21 261 1.0
21 268 1.0
21 275 1.0
21 282 1.0
21 289 1.0
21 296 1.0
21 303 1.0
21 310 1.0
21 317 1.0
21 324 1.0
21 331 1.0
21 338 1.0
21 345 1.0
21 352 1.0
21 359 1.0
21 366 1.0
22 274 1.0
22 281 1.0
22 288 1.0
22 295 1.0
22 302 1.0
22 309 1.0
22 316 1.0
22 323 1.0
22 330 1.0
22 337 1.0
22 344 1.0
22 351 1.0
22 358 1.0
22 365 1.0
22 372 1.0
22 379 1.0
23 287 1.0
23 294 1.0
23 301 1.0
23 308 1.0
23 315 1.0
23 322 1.0
23 329 1.0
23 336 1.0
23 343 1.0
23 350 1.0
23 357 1.0
23 364 1.0
23 371 1.0
23 378 1.0
23 385 1.0
23 392 1.0
24 300 1.0
24 307 1.0
24 314 1.0
24 321 1.0
24 328 1.0
24 335 1.0
24 342 1.0
24 349 1.0
24 356 1.0
24 363 1.0
24 370 1.0
24 377 1.0
24 384 1.0
24 391 1.0
24 398 1.0
24 405 1.0
25 313 1.0
25 320 1.0
25 327 1.0
25 334 1.0
25 341 1.0
25 348 1.0
25 355 1.0
25 362 1.0
25 369 1.0
25 376 1.0
25 383 1.0
25 390 1.0
25 397 1.0
25 404 1.0
25 411 1.0
25 418 1.0
26 326 1.0
26 333 1.0
26 340 1.0
26 347 1.0
26 354 1.0
26 361 1.0
26 368 1.0
26 375 1.0
26 382 1.0
26 389 1.0
26 396 1.0
26 403 1.0
26 410 1.0
26 417 1.0
26 424 1.0
26 431 1.0
27 339 1.0
27 346 1.0
27 353 1.0
27 360 1.0
27 367 1.0
27 374 1.0
27 381 1.0
27 388 1.0
27 395 1.0
27 402 1.0
27 409 1.0
27 416 1.0
27 423 1.0
27 430 1.0
27 437 1.0
27 444 1.0
28 352 1.0
28 359 1.0
28 366 1.0
28 373 1.0
28 380 1.0
28 387 1.0
28 394 1.0
28 401 1.0
28 408 1.0
28 415 1.0
28 422 1.0
28 429 1.0
28 436 1.0
28 443 1.0
28 450 1.0
28 457 1.0
29 365 1.0
29 372 1.0
29 379 1.0
29 386 1.0
29 393 1.0
29 400 1.0
29 407 1.0
29 414 1.0
29 421 1.0
29 428 1.0
29 435 1.0
29 442 1.0
29 449 1.0
29 456 1.0
29 463 1.0
29 470 1.0
30 378 1.0
30 385 1.0
30 392 1.0
30 399 1.0
30 406 1.0
30 413 1.0
30 420 1.0
30 427 1.0
30 434 1.0
30 441 1.0
30 448 1.0
30 455 1.0
30 462 1.0
30 469 1.0
30 476 1.0
30 483 1.0
31 391 1.0
31 398 1.0
31 405 1.0
31 412 1.0
31 419 1.0
31 426 1.0
31 433 1.0
31 440 1.0
31 447 1.0
31 454 1.0
31 461 1.0
31 468 1.0
31 475 1.0
31 482 1.0
31 489 1.0
31 496 1.0
32 404 1.0
32 411 1.0
32 418 1.0
32 425 1.0
32 432 1.0
32 439 1.0
32 446 1.0
32 453 1.0
32 460 1.0
32 467 1.0
32 474 1.0
32 481 1.0
32 488 1.0
32 495 1.0
32 502 1.0
32 509 1.0
33 417 1.0
33 424 1.0
33 431 1.0
33 438 1.0
33 445 1.0
33 452 1.0
33 459 1.0
33 466 1.0
33 473 1.0
33 480 1.0
33 487 1.0
33 494 1.0
33 501 1.0
33 508 1.0
33 515 1.0
33 522 1.0
34 430 1.0
34 437 1.0
34 444 1.0
34 451 1.0
34 458 1.0
34 465 1.0
34 472 1.0
34 479 1.0
34 486 1.0
34 493 1.0
34 500 1.0
34 507 1.0
34 514 1.0
34 521 1.0
34 528 1.0
34 535 1.0
35 443 1.0
35 450 1.0
35 457 1.0
35 464 1.0
35 471 1.0
35 478 1.0
35 485 1.0
35 492 1.0
35 499 1.0
35 506 1.0
35 513 1.0
35 520 1.0
35 527 1.0
35 534 1.0
35 541 1.0
35 548 1.0
36 456 1.0
36 463 1.0
36 470 1.0
36 477 1.0
36 484 1.0
36 491 1.0
36 498 1.0
36 505 1.0
36 512 1.0
36 519 1.0
36 526 1.0
36 533 1.0
36 540 1.0
36 547 1.0
36 554 1.0
36 561 1.0
37 469 1.0
37 476 1.0
37 483 1.0
37 490 1.0
37 497 1.0
37 504 1.0
37 511 1.0
37 518 1.0
37 525 1.0
37 532 1.0
37 539 1.0
37 546 1.0
37 553 1.0
37 560 1.0
37 567 1.0
37 574 1.0
38 482 1.0
38 489 1.0
38 496 1.0
38 503 1.0
38 510 1.0
38 517 1.0
38 524 1.0
38 531 1.0
38 538 1.0
38 545 1.0
38 552 1.0
38 559 1.0
38 566 1.0
38 573 1.0
38 580 1.0
38 587 1.0
39 495 1.0
39 502 1.0
39 509 1.0
39 516 1.0
39 523 1.0
39 530 1.0
39 537 1.0
39 544 1.0
39 551 1.0
39 558 1.0
39 565 1.0
39 572 1.0
39 579 1.0
39 586 1.0
39 593 1.0
39 600 1.0
40 508 1.0
40 515 1.0
40 522 1.0
40 529 1.0
40 536 1.0
40 543 1.0
40 550 1.0
40 557 1.0
40 564 1.0
40 571 1.0
40 578 1.0
40 585 1.0
40 592 1.0
40 599 1.0
40 606 1.0
40 613 1.0
41 521 1.0
41 528 1.0
41 535 1.0
41 542 1.0
41 549 1.0
41 556 1.0
41 563 1.0
41 570 1.0
41 577 1.0
41 584 1.0
41 591 1.0
41 598 1.0
41 605 1.0
41 612 1.0
41 619 1.0
41 626 1.0
42 534 1.0
42 541 1.0
42 548 1.0
42 555 1.0
42 562 1.0
42 569 1.0
42 576 1.0
42 583 1.0
42 590 1.0
42 597 1.0
42 604 1.0
42 611 1.0
42 618 1.0
42 625 1.0
42 632 1.0
42 639 1.0
43 547 1.0
43 554 1.0
43 561 1.0
43 568 1.0
43 575 1.0
43 582 1.0
43 589 1.0
43 596 1.0
43 603 1.0
43 610 1.0
43 617 1.0
43 624 1.0
43 631 1.0
43 638 1.0
43 645 1.0
43 652 1.0
44 560 1.0
44 567 1.0
44 574 1.0
44 581 1.0
44 588 1.0
44 595 1.0
44 602 1.0
44 609 1.0
44 616 1.0
44 623 1.0
44 630 1.0
44 637 1.0
44 644 1.0
44 651 1.0
44 658 1.0
44 665 1.0
45 573 1.0
45 580 1.0
45 587 1.0
45 594 1.0
45 601 1.0
45 608 1.0
45 615 1.0
45 622 1.0
45 629 1.0
45 636 1.0
45 643 1.0
45 650 1.0
45 657 1.0
45 664 1.0
45 671 1.0
45 678 1.0
46 586 1.0
46 593 1.0
46 600 1.0
46 607 1.0
46 614 1.0
46 621 1.0
46 628 1.0
46 635 1.0
46 642 1.0
46 649 1.0
46 656 1.0
46 663 1.0
46 670 1.0
46 677 1.0
46 684 1.0
46 691 1.0
47 599 1.0
47 606 1.0
47 613 1.0
47 620 1.0
47 627 1.0
47 634 1.0
47 641 1.0
47 648 1.0
47 655 1.0
47 662 1.0
47 669 1.0
47 676 1.0
47 683 1.0
47 690 1.0
47 697 1.0
47 704 1.0
48 612 1.0
48 619 1.0
48 626 1.0
48 633 1.0
48 640 1.0
48 647 1.0
48 654 1.0
48 661 1.0
48 668 1.0
48 675 1.0
48 682 1.0
48 689 1.0
48 696 1.0
48 703 1.0
48 710 1.0
48 717 1.0
49 625 1.0
49 632 1.0
49 639 1.0
49 646 1.0
49 653 1.0
49 660 1.0
49 667 1.0
49 674 1.0
49 681 1.0
49 688 1.0
49 695 1.0
49 702 1.0
49 709 1.0
49 716 1.0
49 723 1.0
49 730 1.0
50 638 1.0
50 645 1.0
50 652 1.0
50 659 1.0
50 666 1.0
50 673 1.0
50 680 1.0
50 687 1.0
50 694 1.0
50 701 1.0
50 708 1.0
50 715 1.0
50 722 1.0
50 729 1.0
50 736 1.0
50 743 1.0
51 651 1.0
51 658 1.0
51 665 1.0
51 672 1.0
51 679 1.0
51 686 1.0
51 693 1.0
51 700 1.0
51 707 1.0
51 714 1.0
51 721 1.0
51 728 1.0
51 735 1.0
51 742 1.0
51 749 1.0
51 756 1.0
52 664 1.0
52 671 1.0
52 678 1.0
52 685 1.0
52 692 1.0
52 699 1.0
52 706 1.0
52 713 1.0
52 720 1.0
52 727 1.0
52 734 1.0
52 741 1.0
52 748 1.0
52 755 1.0
52 762 1.0
52 769 1.0
53 677 1.0
53 684 1.0
53 691 1.0
53 698 1.0
53 705 1.0
53 712 1.0
53 719 1.0
53 726 1.0
53 733 1.0
53 740 1.0
53 747 1.0
53 754 1.0
53 761 1.0
53 768 1.0
53 775 1.0
53 782 1.0
54 690 1.0
54 697 1.0
54 704 1.0
54 711 1.0
54 718 1.0
54 725 1.0
54 732 1.0
54 739 1.0
54 746 1.0
54 753 1.0
54 760 1.0
54 767 1.0
54 774 1.0
54 781 1.0
54 788 1.0
54 795 1.0
55 703 1.0
55 710 1.0
55 717 1.0
55 724 1.0
55 731 1.0
55 738 1.0
55 745 1.0
55 752 1.0
55 759 1.0
55 766 1.0
55 773 1.0
55 780 1.0
55 787 1.0
55 794 1.0
55 801 1.0
55 808 1.0
56 716 1.0
56 723 1.0
56 730 1.0
56 737 1.0
56 744 1.0
56 751 1.0
56 758 1.0
56 765 1.0
56 772 1.0
56 779 1.0
56 786 1.0
56 793 1.0
56 800 1.0
56 807 1.0
56 814 1.0
56 821 1.0
57 729 1.0
57 736 1.0
57 743 1.0
57 750 1.0
57 757 1.0
57 764 1.0
57 771 1.0
57 778 1.0
57 785 1.0
57 792 1.0
57 799 1.0
57 806 1.0
57 813 1.0
57 820 1.0
57 827 1.0
57 834 1.0
58 742 1.0
58 749 1.0
58 756 1.0
58 763 1.0
58 770 1.0
58 777 1.0
58 784 1.0
58 791 1.0
58 798 1.0
58 805 1.0
58 812 1.0
58 819 1.0
58 826 1.0
58 833 1.0
58 840 1.0
58 847 1.0
59 755 1.0
59 762 1.0
59 769 1.0
59 776 1.0
59 783 1.0
59 790 1.0
59 797 1.0
59 804 1.0
59 811 1.0
59 818 1.0
59 825 1.0
59 832 1.0
59 839 1.0
59 846 1.0
59 853 1.0
59 860 1.0
60 768 1.0
60 775 1.0
60 782 1.0
60 789 1.0
60 796 1.0
60 803 1.0
60 810 1.0
60 817 1.0
60 824 1.0
60 831 1.0
60 838 1.0
60 845 1.0
60 852 1.0
60 859 1.0
60 866 1.0
60 873 1.0
61 781 1.0
61 788 1.0
61 795 1.0
61 802 1.0
61 809 1.0
61 816 1.0
61 823 1.0
61 830 1.0
61 837 1.0
61 844 1.0
61 851 1.0
61 858 1.0
61 865 1.0
61 872 1.0
61 879 1.0
61 886 1.0
62 794 1.0
62 801 1.0
62 808 1.0
62 815 1.0
62 822 1.0
62 829 1.0
62 836 1.0
62 843 1.0
62 850 1.0
62 857 1.0
62 864 1.0
62 871 1.0
62 878 1.0
62 885 1.0
62 892 1.0
62 899 1.0
63 807 1.0
63 814 1.0
63 821 1.0
63 828 1.0
63 835 1.0
63 842 1.0
63 849 1.0
63 856 1.0
63 863 1.0
63 870 1.0
63 877 1.0
63 884 1.0
63 891 1.0
63 898 1.0
63 905 1.0
63 912 1.0
64 820 1.0
64 827 1.0
64 834 1.0
64 841 1.0
64 848 1.0
64 855 1.0
64 862 1.0
64 869 1.0
64 876 1.0
64 883 1.0
64 890 1.0
64 897 1.0
64 904 1.0
64 911 1.0
64 918 1.0
64 925 1.0
65 833 1.0
65 840 1.0
65 847 1.0
65 854 1.0
65 861 1.0
65 868 1.0
65 875 1.0
65 882 1.0
65 889 1.0
65 896 1.0
65 903 1.0
65 910 1.0
65 917 1.0
65 924 1.0
65 931 1.0
65 938 1.0
66 846 1.0
66 853 1.0
66 860 1.0
66 867 1.0
66 874 1.0
66 881 1.0
66 888 1.0
66 895 1.0
66 902 1.0
66 909 1.0
66 916 1.0
66 923 1.0
66 930 1.0
66 937 1.0
66 944 1.0
66 951 1.0
67 859 1.0
67 866 1.0
67 873 1.0
67 880 1.0
67 887 1.0
67 894 1.0
67 901 1.0
67 908 1.0
67 915 1.0
67 922 1.0
67 929 1.0
67 936 1.0
67 943 1.0
67 950 1.0
67 957 1.0
67 964 1.0
68 872 1.0
68 879 1.0
68 886 1.0
68 893 1.0
68 900 1.0
68 907 1.0
68 914 1.0
68 921 1.0
68 928 1.0
68 935 1.0
68 942 1.0
68 949 1.0
68 956 1.0
68 963 1.0
68 970 1.0
68 977 1.0
69 885 1.0
69 892 1.0
69 899 1.0
69 906 1.0
69 913 1.0
69 920 1.0
69 927 1.0
69 934 1.0
69 941 1.0
69 948 1.0
69 955 1.0
69 962 1.0
69 969 1.0
69 976 1.0
69 983 1.0
69 990 1.0
70 898 1.0
70 905 1.0
70 912 1.0
70 919 1.0
70 926 1.0
70 933 1.0
70 940 1.0
70 947 1.0
70 954 1.0
70 961 1.0
70 968 1.0
70 975 1.0
70 982 1.0
70 989 1.0
70 996 1.0
70 1003 1.0
71 911 1.0
71 918 1.0
71 925 1.0
71 932 1.0
71 939 1.0
71 946 1.0
71 953 1.0
71 960 1.0
71 967 1.0
71 974 1.0
71 981 1.0
71 988 1.0
71 995 1.0
71 1002 1.0
71 1009 1.0
71 1016 1.0
72 924 1.0
72 931 1.0
72 938 1.0
72 945 1.0
72 952 1.0
72 959 1.0
72 966 1.0
72 973 1.0
72 980 1.0
72 987 1.0
72 994 1.0
72 1001 1.0
72 1008 1.0
72 1015 1.0
72 1022 1.0
72 5 1.0
73 937 1.0
73 944 1.0
73 951 1.0
73 958 1.0
73 965 1.0
73 972 1.0
73 979 1.0
73 986 1.0
73 993 1.0
73 1000 1.0
73 1007 1.0
73 1014 1.0
73 1021 1.0
73 4 1.0
73 11 1.0
73 18 1.0
74 950 1.0
74 957 1.0
74 964 1.0
74 971 1.0
74 978 1.0
74 985 1.0
74 992 1.0
74 999 1.0
74 1006 1.0
74 1013 1.0
74 1020 1.0
74 3 1.0
74 10 1.0
74 17 1.0
74 24 1.0
74 31 1.0
75 963 1.0
75 970 1.0
75 977 1.0
75 984 1.0
75 991 1.0
75 998 1.0
75 1005 1.0
75 1012 1.0
75 1019 1.0
75 2 1.0
75 9 1.0
75 16 1.0
75 23 1.0
75 30 1.0
75 37 1.0
75 44 1.0
76 976 1.0
76 983 1.0
76 990 1.0
76 997 1.0
76 1004 1.0
76 1011 1.0
76 1018 1.0
76 1 1.0
76 8 1.0
76 15 1.0
76 22 1.0
76 29 1.0
76 36 1.0
76 43 1.0
76 50 1.0
76 57 1.0
77 989 1.0
77 996 1.0
77 1003 1.0
77 1010 1.0
77 1017 1.0
77 1024 1.0
77 7 1.0
77 14 1.0
77 21 1.0
77 28 1.0
77 35 1.0
77 42 1.0
77 49 1.0
77 56 1.0
77 63 1.0
77 70 1.0
78 1002 1.0
78 1009 1.0
78 1016 1.0
78 1023 1.0
78 6 1.0
78 13 1.0
78 20 1.0
78 27 1.0
78 34 1.0
78 41 1.0
78 48 1.0
78 55 1.0
78 62 1.0
78 69 1.0
78 76 1.0
78 83 1.0
79 1015 1.0
79 1022 1.0
79 5 1.0
79 12 1.0
79 19 1.0
79 26 1.0
79 33 1.0
79 40 1.0
79 47 1.0
79 54 1.0
79 61 1.0
79 68 1.0
79 75 1.0
79 82 1.0
79 89 1.0
79 96 1.0
80 4 1.0
80 11 1.0
80 18 1.0
80 25 1.0
80 32 1.0
80 39 1.0
80 46 1.0
80 53 1.0
80 60 1.0
80 67 1.0
80 74 1.0
80 81 1.0
80 88 1.0
80 95 1.0
80 102 1.0
80 109 1.0
81 17 1.0
81 24 1.0
81 31 1.0
81 38 1.0
81 45 1.0
81 52 1.0
81 59 1.0
81 66 1.0
81 73 1.0
81 80 1.0
81 87 1.0
81 94 1.0
81 101 1.0
81 108 1.0
81 115 1.0
81 122 1.0
82 30 1.0
82 37 1.0
82 44 1.0
82 51 1.0
82 58 1.0
82 65 1.0
82 72 1.0
82 79 1.0
82 86 1.0
82 93 1.0
82 100 1.0
82 107 1.0
82 114 1.0
82 121 1.0
82 128 1.0
82 135 1.0
83 43 1.0
83 50 1.0
83 57 1.0
83 64 1.0
83 71 1.0
83 78 1.0
83 85 1.0
83 92 1.0
83 99 1.0
83 106 1.0
83 113 1.0
83 120 1.0
83 127 1.0
83 134 1.0
83 141 1.0
83 148 1.0
84 56 1.0
84 63 1.0
84 70 1.0
84 77 1.0
84 84 1.0
84 91 1.0
84 98 1.0
84 105 1.0
84 112 1.0
84 119 1.0
84 126 1.0
84 133 1.0
84 140 1.0
84 147 1.0
84 154 1.0
84 161 1.0
85 69 1.0
85 76 1.0
85 83 1.0
85 90 1.0
85 97 1.0
85 104 1.0
85 111 1.0
85 118 1.0
85 125 1.0
85 132 1.0
85 139 1.0
85 146 1.0
85 153 1.0
85 160 1.0
85 167 1.0
85 174 1.0
86 82 1.0
86 89 1.0
86 96 1.0
86 103 1.0
86 110 1.0
86 117 1.0
86 124 1.0
86 131 1.0
86 138 1.0
86 145 1.0
86 152 1.0
86 159 1.0
86 166 1.0
86 173 1.0
86 180 1.0
86 187 1.0
87 95 1.0
87 102 1.0
87 109 1.0
87 116 1.0
87 123 1.0
87 130 1.0
87 137 1.0
87 144 1.0
87 151 1.0
87 158 1.0
87 165 1.0
87 172 1.0
87 179 1.0
87 186 1.0
87 193 1.0
87 200 1.0
88 108 1.0
88 115 1.0
88 122 1.0
88 129 1.0
88 136 1.0
88 143 1.0
88 150 1.0
88 157 1.0
88 164 1.0
88 171 1.0
88 178 1.0
88 185 1.0
88 192 1.0
88 199 1.0
88 206 1.0
88 213 1.0
89 121 1.0
89 128 1.0
89 135 1.0
89 142 1.0
89 149 1.0
89 156 1.0
89 163 1.0
89 170 1.0
89 177 1.0
89 184 1.0
89 191 1.0
89 198 1.0
89 205 1.0
89 212 1.0
89 219 1.0
89 226 1.0
90 134 1.0
90 141 1.0
90 148 1.0
90 155 1.0
90 162 1.0
90 169 1.0
90 176 1.0
90 183 1.0
90 190 1.0
90 197 1.0
90 204 1.0
90 211 1.0
90 218 1.0
90 225 1.0
90 232 1.0
90 239 1.0
91 147 1.0
91 154 1.0
91 161 1.0
91 168 1.0
91 175 1.0
91 182 1.0
91 189 1.0
91 196 1.0
91 203 1.0
91 210 1.0
91 217 1.0
91 224 1.0
91 231 1.0
91 238 1.0
91 245 1.0
91 252 1.0
92 160 1.0
92 167 1.0
92 174 1.0
92 181 1.0
92 188 1.0
92 195 1.0
92 202 1.0
92 209 1.0
92 216 1.0
92 223 1.0
92 230 1.0
92 237 1.0
92 244 1.0
92 251 1.0
92 258 1.0
92 265 1.0
93 173 1.0
93 180 1.0
93 187 1.0
93 194 1.0
93 201 1.0
93 208 1.0
93 215 1.0
93 222 1.0
93 229 1.0
93 236 1.0
93 243 1.0
93 250 1.0
93 257 1.0
93 264 1.0
93 271 1.0
93 278 1.0
94 186 1.0
94 193 1.0
94 200 1.0
94 207 1.0
94 214 1.0
94 221 1.0
94 228 1.0
94 235 1.0
94 242 1.0
94 249 1.0
94 256 1.0
94 263 1.0
94 270 1.0
94 277 1.0
94 284 1.0
94 291 1.0
95 199 1.0
95 206 1.0
95 213 1.0
95 220 1.0
95 227 1.0
95 234 1.0
95 241 1.0
95 248 1.0
95 255 1.0
95 262 1.0
95 269 1.0
95 276 1.0
95 283 1.0
95 290 1.0
95 297 1.0
95 304 1.0
96 212 1.0
96 219 1.0
96 226 1.0
96 233 1.0
96 240 1.0
96 247 1.0
96 254 1.0
96 261 1.0
96 268 1.0
96 275 1.0
96 282 1.0
96 289 1.0
96 296 1.0
96 303 1.0
96 310 1.0
96 317 1.0
97 225 1.0
97 232 1.0
97 239 1.0
97 246 1.0
97 253 1.0
97 260 1.0
97 267 1.0
97 274 1.0
97 281 1.0
97 288 1.0
97 295 1.0
97 302 1.0
97 309 1.0
97 316 1.0
97 323 1.0
97 330 1.0
98 238 1.0
98 245 1.0
98 252 1.0
98 259 1.0
98 266 1.0
98 273 1.0
98 280 1.0
98 287 1.0
98 294 1.0
98 301 1.0
98 308 1.0
98 315 1.0
98 322 1.0
98 329 1.0
98 336 1.0
98 343 1.0
99 251 1.0
99 258 1.0
99 265 1.0
99 272 1.0
99 279 1.0
99 286 1.0
99 293 1.0
99 300 1.0
99 307 1.0
99 314 1.0
99 321 1.0
99 328 1.0
99 335 1.0
99 342 1.0
99 349 1.0
99 356 1.0
100 264 1.0
100 271 1.0
100 278 1.0
100 285 1.0
100 292 1.0
100 299 1.0
100 306 1.0
100 313 1.0
100 320 1.0
100 327 1.0
100 334 1.0
100 341 1.0
100 348 1.0
100 355 1.0
100 362 1.0
100 369 1.0
101 277 1.0
101 284 1.0
101 291 1.0
101 298 1.0
101 305 1.0
101 312 1.0
101 319 1.0
101 326 1.0
101 333 1.0
101 340 1.0
101 347 1.0
101 354 1.0
101 361 1.0
101 368 1.0
101 375 1.0
101 382 1.0
102 290 1.0
102 297 1.0
102 304 1.0
102 311 1.0
102 318 1.0
102 325 1.0
102 332 1.0
102 339 1.0
102 346 1.0
102 353 1.0
102 360 1.0
102 367 1.0
102 374 1.0
102 381 1.0
102 388 1.0
102 395 1.0
103 303 1.0
103 310 1.0
103 317 1.0
103 324 1.0
103 331 1.0
103 338 1.0
103 345 1.0
103 352 1.0
103 359 1.0
103 366 1.0
103 373 1.0
103 380 1.0
103 387 1.0
103 394 1.0
103 401 1.0
103 408 1.0
104 316 1.0
104 323 1.0
104 330 1.0
104 337 1.0
104 344 1.0
104 351 1.0
104 358 1.0
104 365 1.0
104 372 1.0
104 379 1.0
104 386 1.0
104 393 1.0
104 400 1.0
104 407 1.0
104 414 1.0
104 421 1.0
105 329 1.0
105 336 1.0
105 343 1.0
105 350 1.0
105 357 1.0
105 364 1.0
105 371 1.0
105 378 1.0
105 385 1.0
105 392 1.0
105 399 1.0
105 406 1.0
105 413 1.0
105 420 1.0
105 427 1.0
105 434 1.0
106 342 1.0
106 349 1.0
106 356 1.0
106 363 1.0
106 370 1.0
106 377 1.0
106 384 1.0
106 391 1.0
106 398 1.0
106 405 1.0
106 412 1.0
106 419 1.0
106 426 1.0
106 433 1.0
106 440 1.0
106 447 1.0
107 355 1.0
107 362 1.0
107 369 1.0
107 376 1.0
107 383 1.0
107 390 1.0
107 397 1.0
107 404 1.0
107 411 1.0
107 418 1.0
107 425 1.0
107 432 1.0
107 439 1.0
107 446 1.0
107 453 1.0
107 460 1.0
108 368 1.0
108 375 1.0
108 382 1.0
108 389 1.0
108 396 1.0
108 403 1.0
108 410 1.0
108 417 1.0
108 424 1.0
108 431 1.0
108 438 1.0
108 445 1.0
108 452 1.0
108 459 1.0
108 466 1.0
108 473 1.0
109 381 1.0
109 388 1.0
109 395 1.0
109 402 1.0
109 409 1.0
109 416 1.0
109 423 1.0
109 430 1.0
109 437 1.0
109 444 1.0
109 451 1.0
109 458 1.0
109 465 1.0
109 472 1.0
109 479 1.0
109 486 1.0
110 394 1.0
110 401 1.0
110 408 1.0
110 415 1.0
110 422 1.0
110 429 1.0
110 436 1.0
110 443 1.0
110 450 1.0
110 457 1.0
110 464 1.0
110 471 1.0
110 478 1.0
110 485 1.0
110 492 1.0
110 499 1.0
111 407 1.0
111 414 1.0
111 421 1.0
111 428 1.0
111 435 1.0
111 442 1.0
111 449 1.0
111 456 1.0
111 463 1.0
111 470 1.0
111 477 1.0
111 484 1.0
111 491 1.0
111 498 1.0
111 505 1.0
111 512 1.0
112 420 1.0
112 427 1.0
112 434 1.0
112 441 1.0
112 448 1.0
112 455 1.0
112 462 1.0
112 469 1.0
112 476 1.0
112 483 1.0
112 490 1.0
112 497 1.0
112 504 1.0
112 511 1.0
112 518 1.0
112 525 1.0
113 433 1.0
113 440 1.0
113 447 1.0
113 454 1.0
113 461 1.0
113 468 1.0
113 475 1.0
113 482 1.0
113 489 1.0
113 496 1.0
113 503 1.0
113 510 1.0
113 517 1.0
113 524 1.0
113 531 1.0
113 538 1.0
114 446 1.0
114 453 1.0
114 460 1.0
114 467 1.0
114 474 1.0
114 481 1.0
114 488 1.0
114 495 1.0
114 502 1.0
114 509 1.0
114 516 1.0
114 523 1.0
114 530 1.0
114 537 1.0
114 544 1.0
114 551 1.0
115 459 1.0
115 466 1.0
115 473 1.0
115 480 1.0
115 487 1.0
115 494 1.0
115 501 1.0
115 508 1.0
115 515 1.0
115 522 1.0
115 529 1.0
115 536 1.0
115 543 1.0
115 550 1.0
115 557 1.0
115 564 1.0
116 472 1.0
116 479 1.0
116 486 1.0
116 493 1.0
116 500 1.0
116 507 1.0
116 514 1.0
116 521 1.0
116 528 1.0
116 535 1.0
116 542 1.0
116 549 1.0
116 556 1.0
116 563 1.0
116 570 1.0
116 577 1.0
117 485 1.0
117 492 1.0
117 499 1.0
117 506 1.0
117 513 1.0
117 520 1.0
117 527 1.0
117 534 1.0
117 541 1.0
117 548 1.0
117 555 1.0
117 562 1.0
117 569 1.0
117 576 1.0
117 583 1.0
117 590 1.0
118 498 1.0
118 505 1.0
118 512 1.0
118 519 1.0
118 526 1.0
118 533 1.0
118 540 1.0
118 547 1.0
118 554 1.0
118 561 1.0
118 568 1.0
118 575 1.0
118 582 1.0
118 589 1.0
118 596 1.0
118 603 1.0
119 511 1.0
119 518 1.0
119 525 1.0
119 532 1.0
119 539 1.0
119 546 1.0
119 553 1.0
119 560 1.0
119 567 1.0
119 574 1.0
119 581 1.0
119 588 1.0
119 595 1.0
119 602 1.0
119 609 1.0
119 616 1.0
120 524 1.0
120 531 1.0
120 538 1.0
120 545 1.0
120 552 1.0
120 559 1.0
120 566 1.0
120 573 1.0
120 580 1.0
120 587 1.0
120 594 1.0
120 601 1.0
120 608 1.0
120 615 1.0
120 622 1.0
120 629 1.0
121 537 1.0
121 544 1.0
121 551 1.0
121 558 1.0
121 565 1.0
121 572 1.0
121 579 1.0
121 586 1.0
121 593 1.0
121 600 1.0
121 607 1.0
121 614 1.0
121 621 1.0
121 628 1.0
121 635 1.0
121 642 1.0
122 550 1.0
122 557 1.0
122 564 1.0
122 571 1.0
122 578 1.0
122 585 1.0
122 592 1.0
122 599 1.0
122 606 1.0
122 613 1.0
122 620 1.0
122 627 1.0
122 634 1.0
122 641 1.0
122 648 1.0
122 655 1.0
123 563 1.0
123 570 1.0
123 577 1.0
123 584 1.0
123 591 1.0
123 598 1.0
123 605 1.0
123 612 1.0
123 619 1.0
123 626 1.0
123 633 1.0
123 640 1.0
123 647 1.0
123 654 1.0
123 661 1.0
123 668 1.0
124 576 1.0
124 583 1.0
124 590 1.0
124 597 1.0
124 604 1.0
124 611 1.0
124 618 1.0
124 625 1.0
124 632 1.0
124 639 1.0
124 646 1.0
124 653 1.0
124 660 1.0
124 667 1.0
124 674 1.0
124 681 1.0
125 589 1.0
125 596 1.0
125 603 1.0
125 610 1.0
125 617 1.0
125 624 1.0
125 631 1.0
125 638 1.0
125 645 1.0
125 652 1.0
125 659 1.0
125 666 1.0
125 673 1.0
125 680 1.0
125 687 1.0
125 694 1.0
126 602 1.0
126 609 1.0
126 616 1.0
126 623 1.0
126 630 1.0
126 637 1.0
126 644 1.0
126 651 1.0
126 658 1.0
126 665 1.0
126 672 1.0
126 679 1.0
126 686 1.0
126 693 1.0
126 700 1.0
126 707 1.0
127 615 1.0
127 622 1.0
127 629 1.0
127 636 1.0
127 643 1.0
127 650 1.0
127 657 1.0
127 664 1.0
127 671 1.0
127 678 1.0
127 685 1.0
127 692 1.0
127 699 1.0
127 706 1.0
127 713 1.0
127 720 1.0
128 628 1.0
128 635 1.0
128 642 1.0
128 649 1.0
128 656 1.0
128 663 1.0
128 670 1.0
128 677 1.0
128 684 1.0
128 691 1.0
128 698 1.0
128 705 1.0
128 712 1.0
128 719 1.0
128 726 1.0
128 733 1.0
129 641 1.0
129 648 1.0
129 655 1.0
129 662 1.0
129 669 1.0
129 676 1.0
129 683 1.0
129 690 1.0
129 697 1.0
129 704 1.0
129 711 1.0
129 718 1.0
129 725 1.0
129 732 1.0
129 739 1.0
129 746 1.0
130 654 1.0
130 661 1.0
130 668 1.0
130 675 1.0
130 682 1.0
130 689 1.0
130 696 1.0
130 703 1.0
130 710 1.0
130 717 1.0
130 724 1.0
130 731 1.0
130 738 1.0
130 745 1.0
130 752 1.0
130 759 1.0
131 667 1.0
131 674 1.0
131 681 1.0
131 688 1.0
131 695 1.0
131 702 1.0
131 709 1.0
131 716 1.0
131 723 1.0
131 730 1.0
131 737 1.0
131 744 1.0
131 751 1.0
131 758 1.0
131 765 1.0
131 772 1.0
132 680 1.0
132 687 1.0
132 694 1.0
132 701 1.0
132 708 1.0
132 715 1.0
132 722 1.0
132 729 1.0
132 736 1.0
132 743 1.0
132 750 1.0
132 757 1.0
132 764 1.0
132 771 1.0
132 778 1.0
132 785 1.0
133 693 1.0
133 700 1.0
133 707 1.0
133 714 1.0
133 721 1.0
133 728 1.0
133 735 1.0
133 742 1.0
133 749 1.0
133 756 1.0
133 763 1.0
133 770 1.0
133 777 1.0
133 784 1.0
133 791 1.0
133 798 1.0
134 706 1.0
134 713 1.0
134 720 1.0
134 727 1.0
134 734 1.0
134 741 1.0
134 748 1.0
134 755 1.0
134 762 1.0
134 769 1.0
134 776 1.0
134 783 1.0
134 790 1.0
134 797 1.0
134 804 1.0
134 811 1.0
135 719 1.0
135 726 1.0
135 733 1.0
135 740 1.0
135 747 1.0
135 754 1.0
135 761 1.0
135 768 1.0
135 775 1.0
135 782 1.0
135 789 1.0
135 796 1.0
135 803 1.0
135 810 1.0
135 817 1.0
135 824 1.0
136 732 1.0
136 739 1.0
136 746 1.0
136 753 1.0
136 760 1.0
136 767 1.0
136 774 1.0
136 781 1.0
136 788 1.0
136 795 1.0
136 802 1.0
136 809 1.0
136 816 1.0
136 823 1.0
136 830 1.0
136 837 1.0
137 745 1.0
137 752 1.0
137 759 1.0
137 766 1.0
137 773 1.0
137 780 1.0
137 787 1.0
137 794 1.0
137 801 1.0
137 808 1.0
137 815 1.0
137 822 1.0
137 829 1.0
137 836 1.0
137 843 1.0
137 850 1.0
138 758 1.0
138 765 1.0
138 772 1.0
138 779 1.0
138 786 1.0
138 793 1.0
138 800 1.0
138 807 1.0
138 814 1.0
138 821 1.0
138 828 1.0
138 835 1.0
138 842 1.0
138 849 1.0
138 856 1.0
138 863 1.0
139 771 1.0
139 778 1.0
139 785 1.0
139 792 1.0
139 799 1.0
139 806 1.0
139 813 1.0
139 820 1.0
139 827 1.0
139 834 1.0
139 841 1.0
139 848 1.0
139 855 1.0
139 862 1.0
139 869 1.0
139 876 1.0
140 784 1.0
140 791 1.0
140 798 1.0
140 805 1.0
140 812 1.0
140 819 1.0
140 826 1.0
140 833 1.0
140 840 1.0
140 847 1.0
140 854 1.0
140 861 1.0
140 868 1.0
140 875 1.0
140 882 1.0
140 889 1.0
141 797 1.0
141 804 1.0
141 811 1.0
141 818 1.0
141 825 1.0
141 832 1.0
141 839 1.0
141 846 1.0
141 853 1.0
141 860 1.0
141 867 1.0
141 874 1.0
141 881 1.0
141 888 1.0
141 895 1.0
141 902 1.0
142 810 1.0
142 817 1.0
142 824 1.0
142 831 1.0
142 838 1.0
142 845 1.0
142 852 1.0
142 859 1.0
142 866 1.0
142 873 1.0
142 880 1.0
142 887 1.0
142 894 1.0
142 901 1.0
142 908 1.0
142 915 1.0
143 823 1.0
143 830 1.0
143 837 1.0
143 844 1.0
143 851 1.0
143 858 1.0
143 865 1.0
143 872 1.0
143 879 1.0
143 886 1.0
143 893 1.0
143 900 1.0
143 907 1.0
143 914 1.0
143 921 1.0
143 928 1.0
144 836 1.0
144 843 1.0
144 850 1.0
144 857 1.0
144 864 1.0
144 871 1.0
144 878 1.0
144 885 1.0
144 892 1.0
144 899 1.0
144 906 1.0
144 913 1.0
144 920 1.0
144 927 1.0
144 934 1.0
144 941 1.0
145 849 1.0
145 856 1.0
145 863 1.0
145 870 1.0
145 877 1.0
145 884 1.0
145 891 1.0
145 898 1.0
145 905 1.0
145 912 1.0
145 919 1.0
145 926 1.0
145 933 1.0
145 940 1.0
145 947 1.0
145 954 1.0
146 862 1.0
146 869 1.0
146 876 1.0
146 883 1.0
146 890 1.0
146 897 1.0
146 904 1.0
146 911 1.0
146 918 1.0
146 925 1.0
146 932 1.0
146 939 1.0
146 946 1.0
146 953 1.0
146 960 1.0
146 967 1.0
147 875 1.0
147 882 1.0
147 889 1.0
147 896 1.0
147 903 1.0
147 910 1.0
147 917 1.0
147 924 1.0
147 931 1.0
147 938 1.0
147 945 1.0
147 952 1.0
147 959 1.0
147 966 1.0
147 973 1.0
147 980 1.0
148 888 1.0
148 895 1.0
148 902 1.0
148 909 1.0
148 916 1.0
148 923 1.0
148 930 1.0
148 937 1.0
148 944 1.0
148 951 1.0
148 958 1.0
148 965 1.0
148 972 1.0
148 979 1.0
148 986 1.0
148 993 1.0
149 901 1.0
149 908 1.0
149 915 1.0
149 922 1.0
149 929 1.0
149 936 1.0
149 943 1.0
149 950 1.0
149 957 1.0
149 964 1.0
149 971 1.0
149 978 1.0
149 985 1.0
149 992 1.0
149 999 1.0
149 1006 1.0
150 914 1.0
150 921 1.0
150 928 1.0
150 935 1.0
150 942 1.0
150 949 1.0
150 956 1.0
150 963 1.0
150 970 1.0
150 977 1.0
150 984 1.0
150 991 1.0
150 998 1.0
150 1005 1.0
150 1012 1.0
150 1019 1.0
151 927 1.0
151 934 1.0
151 941 1.0
151 948 1.0
151 955 1.0
151 962 1.0
151 969 1.0
151 976 1.0
151 983 1.0
151 990 1.0
151 997 1.0
151 1004 1.0
151 1011 1.0
151 1018 1.0
151 1 1.0
151 8 1.0
152 940 1.0
152 947 1.0
152 954 1.0
152 961 1.0
152 968 1.0
152 975 1.0
152 982 1.0
152 989 1.0
152 996 1.0
152 1003 1.0
152 1010 1.0
152 1017 1.0
152 1024 1.0
152 7 1.0
152 14 1.0
152 21 1.0
153 953 1.0
153 960 1.0
153 967 1.0
153 974 1.0
153 981 1.0
153 988 1.0
153 995 1.0
153 1002 1.0
153 1009 1.0
153 1016 1.0
153 1023 1.0
153 6 1.0
153 13 1.0
153 20 1.0
153 27 1.0
153 34 1.0
154 966 1.0
154 973 1.0
154 980 1.0
154 987 1.0
154 994 1.0
154 1001 1.0
154 1008 1.0
154 1015 1.0
154 1022 1.0
154 5 1.0
154 12 1.0
154 19 1.0
154 26 1.0
154 33 1.0
154 40 1.0
154 47 1.0
155 979 1.0
155 986 1.0
155 993 1.0
155 1000 1.0
155 1007 1.0
155 1014 1.0
155 1021 1.0
155 4 1.0
155 11 1.0
155 18 1.0
155 25 1.0
155 32 1.0
155 39 1.0
155 46 1.0
155 53 1.0
155 60 1.0
156 992 1.0
156 999 1.0
156 1006 1.0
156 1013 1.0
156 1020 1.0
156 3 1.0
156 10 1.0
156 17 1.0
156 24 1.0
156 31 1.0
156 38 1.0
156 45 1.0
156 52 1.0
156 59 1.0
156 66 1.0
156 73 1.0
157 1005 1.0
157 1012 1.0
157 1019 1.0
157 2 1.0
157 9 1.0
157 16 1.0
157 23 1.0
157 30 1.0
157 37 1.0
157 44 1.0
157 51 1.0
157 58 1.0
157 65 1.0
157 72 1.0
157 79 1.0
157 86 1.0
158 1018 1.0
158 1 1.0
158 8 1.0
158 15 1.0
158 22 1.0
158 29 1.0
158 36 1.0
158 43 1.0
158 50 1.0
158 57 1.0
158 64 1.0
158 71 1.0
158 78 1.0
158 85 1.0
158 92 1.0
158 99 1.0
159 7 1.0
159 14 1.0
159 21 1.0
159 28 1.0
159 35 1.0
159 42 1.0
159 49 1.0
159 56 1.0
159 63 1.0
159 70 1.0
159 77 1.0
159 84 1.0
159 91 1.0
159 98 1.0
159 105 1.0
159 112 1.0
160 20 1.0
160 27 1.0
160 34 1.0
160 41 1.0
160 48 1.0
160 55 1.0
160 62 1.0
160 69 1.0
160 76 1.0
160 83 1.0
160 90 1.0
160 97 1.0
160 104 1.0
160 111 1.0
160 118 1.0
160 125 1.0
161 33 1.0
161 40 1.0
161 47 1.0
161 54 1.0
161 61 1.0
161 68 1.0
161 75 1.0
161 82 1.0
161 89 1.0
161 96 1.0
161 103 1.0
161 110 1.0
161 117 1.0
161 124 1.0
161 131 1.0
161 138 1.0
162 46 1.0
162 53 1.0
162 60 1.0
162 67 1.0
162 74 1.0
162 81 1.0
162 88 1.0
162 95 1.0
162 102 1.0
162 109 1.0
162 116 1.0
162 123 1.0
162 130 1.0
162 137 1.0
162 144 1.0
162 151 1.0
163 59 1.0
163 66 1.0
163 73 1.0
163 80 1.0
163 87 1.0
163 94 1.0
163 101 1.0
163 108 1.0
163 115 1.0
163 122 1.0
163 129 1.0
163 136 1.0
163 143 1.0
163 150 1.0
163 157 1.0
163 164 1.0
164 72 1.0
164 79 1.0
164 86 1.0
164 93 1.0
164 100 1.0
164 107 1.0
164 114 1.0
164 121 1.0
164 128 1.0
164 135 1.0
164 142 1.0
164 149 1.0
164 156 1.0
164 163 1.0
164 170 1.0
164 177 1.0
165 85 1.0
165 92 1.0
165 99 1.0
165 106 1.0
165 113 1.0
165 120 1.0
165 127 1.0
165 134 1.0
165 141 1.0
165 148 1.0
165 155 1.0
165 162 1.0
165 169 1.0
165 176 1.0
165 183 1.0
165 190 1.0
166 98 1.0
166 105 1.0
166 112 1.0
166 119 1.0
166 126 1.0
166 133 1.0
166 140 1.0
166 147 1.0
166 154 1.0
166 161 1.0
166 168 1.0
166 175 1.0
166 182 1.0
166 189 1.0
166 196 1.0
166 203 1.0
167 111 1.0
167 118 1.0
167 125 1.0
167 132 1.0
167 139 1.0
167 146 1.0
167 153 1.0
167 160 1.0
167 167 1.0
167 174 1.0
167 181 1.0
167 188 1.0
167 195 1.0
167 202 1.0
167 209 1.0
167 216 1.0
168 124 1.0
168 131 1.0
168 138 1.0
168 145 1.0
168 152 1.0
168 159 1.0
168 166 1.0
168 173 1.0
168 180 1.0
168 187 1.0
168 194 1.0
168 201 1.0
168 208 1.0
168 215 1.0
168 222 1.0
168 229 1.0
169 137 1.0
169 144 1.0
169 151 1.0
169 158 1.0
169 165 1.0
169 172 1.0
169 179 1.0
169 186 1.0
169 193 1.0
169 200 1.0
169 207 1.0
169 214 1.0
169 221 1.0
169 228 1.0
169 235 1.0
169 242 1.0
170 150 1.0
170 157 1.0
170 164 1.0
170 171 1.0
170 178 1.0
170 185 1.0
170 192 1.0
170 199 1.0
170 206 1.0
170 213 1.0
170 220 1.0
170 227 1.0
170 234 1.0
170 241 1.0
170 248 1.0
170 255 1.0
171 163 1.0
171 170 1.0
171 177 1.0
171 184 1.0
171 191 1.0
171 198 1.0
171 205 1.0
171 212 1.0
171 219 1.0
171 226 1.0
171 233 1.0
171 240 1.0
171 247 1.0
171 254 1.0
171 261 1.0
171 268 1.0
172 176 1.0
172 183 1.0
172 190 1.0
172 197 1.0
172 204 1.0
172 211 1.0
172 218 1.0
172 225 1.0
172 232 1.0
172 239 1.0
172 246 1.0
172 253 1.0
172 260 1.0
172 267 1.0
172 274 1.0
172 281 1.0
173 189 1.0
173 196 1.0
173 203 1.0
173 210 1.0
173 217 1.0
173 224 1.0
173 231 1.0
173 238 1.0
173 245 1.0
173 252 1.0
173 259 1.0
173 266 1.0
173 273 1.0
173 280 1.0
173 287 1.0
173 294 1.0
174 202 1.0
174 209 1.0
174 216 1.0
174 223 1.0
174 230 1.0
174 237 1.0
174 244 1.0
174 251 1.0
174 258 1.0
174 265 1.0
174 272 1.0
174 279 1.0
174 286 1.0
174 293 1.0
174 300 1.0
174 307 1.0
175 215 1.0
175 222 1.0
175 229 1.0
175 236 1.0
175 243 1.0
175 250 1.0
175 257 1.0
175 264 1.0
175 271 1.0
175 278 1.0
175 285 1.0
175 292 1.0
175 299 1.0
175 306 1.0
175 313 1.0
175 320 1.0
176 228 1.0
176 235 1.0
176 242 1.0
176 249 1.0
176 256 1.0
176 263 1.0
176 270 1.0
176 277 1.0
176 284 1.0
176 291 1.0
176 298 1.0
176 305 1.0
176 312 1.0
176 319 1.0
176 326 1.0
176 333 1.0
177 241 1.0
177 248 1.0
177 255 1.0
177 262 1.0
177 269 1.0
177 276 1.0
177 283 1.0
177 290 1.0
177 297 1.0
177 304 1.0
177 311 1.0
177 318 1.0
177 325 1.0
177 332 1.0
177 339 1.0
177 346 1.0
178 254 1.0
178 261 1.0
178 268 1.0
178 275 1.0
178 282 1.0
178 289 1.0
178 296 1.0
178 303 1.0
178 310 1.0
178 317 1.0
178 324 1.0
178 331 1.0
178 338 1.0
178 345 1.0
178 352 1.0
178 359 1.0
179 267 1.0
179 274 1.0
179 281 1.0
179 288 1.0
179 295 1.0
179 302 1.0
179 309 1.0
179 316 1.0
179 323 1.0
179 330 1.0
179 337 1.0
179 344 1.0
179 351 1.0
179 358 1.0
179 365 1.0
179 372 1.0
180 280 1.0
180 287 1.0
180 294 1.0
180 301 1.0
180 308 1.0
180 315 1.0
180 322 1.0
180 329 1.0
180 336 1.0
180 343 1.0
180 350 1.0
180 357 1.0
180 364 1.0
180 371 1.0
180 378 1.0
180 385 1.0
181 293 1.0
181 300 1.0
181 307 1.0
181 314 1.0
181 321 1.0
181 328 1.0
181 335 1.0
181 342 1.0
181 349 1.0
181 356 1.0
181 363 1.0
181 370 1.0
181 377 1.0
181 384 1.0
181 391 1.0
181 398 1.0
182 306 1.0
182 313 1.0
182 320 1.0
182 327 1.0
182 334 1.0
182 341 1.0
182 348 1.0
182 355 1.0
182 362 1.0
182 369 1.0
182 376 1.0
182 383 1.0
182 390 1.0
182 397 1.0
182 404 1.0
182 411 1.0
183 319 1.0
183 326 1.0
183 333 1.0
183 340 1.0
183 347 1.0
183 354 1.0
183 361 1.0
183 368 1.0
183 375 1.0
183 382 1.0
183 389 1.0
183 396 1.0
183 403 1.0
183 410 1.0
183 417 1.0
183 424 1.0
184 332 1.0
184 339 1.0
184 346 1.0
184 353 1.0
184 360 1.0
184 367 1.0
184 374 1.0
184 381 1.0
184 388 1.0
184 395 1.0
184 402 1.0
184 409 1.0
184 416 1.0
184 423 1.0
184 430 1.0
184 437 1.0
185 345 1.0
185 352 1.0
185 359 1.0
185 366 1.0
185 373 1.0
185 380 1.0
185 387 1.0
185 394 1.0
185 401 1.0
185 408 1.0
185 415 1.0
185 422 1.0
185 429 1.0
185 436 1.0
185 443 1.0
185 450 1.0
186 358 1.0
186 365 1.0
186 372 1.0
186 379 1.0
186 386 1.0
186 393 1.0
186 400 1.0
186 407 1.0
186 414 1.0
186 421 1.0
186 428 1.0
186 435 1.0
186 442 1.0
186 449 1.0
186 456 1.0
186 463 1.0
187 371 1.0
187 378 1.0
187 385 1.0
187 392 1.0
187 399 1.0
187 406 1.0
187 413 1.0
187 420 1.0
187 427 1.0
187 434 1.0
187 441 1.0
187 448 1.0
187 455 1.0
187 462 1.0
187 469 1.0
187 476 1.0
188 384 1.0
188 391 1.0
188 398 1.0
188 405 1.0
188 412 1.0
188 419 1.0
188 426 1.0
188 433 1.0
188 440 1.0
188 447 1.0
188 454 1.0
188 461 1.0
188 468 1.0
188 475 1.0
188 482 1.0
188 489 1.0
189 397 1.0
189 404 1.0
189 411 1.0
189 418 1.0
189 425 1.0
189 432 1.0
189 439 1.0
189 446 1.0
189 453 1.0
189 460 1.0
189 467 1.0
189 474 1.0
189 481 1.0
189 488 1.0
189 495 1.0
189 502 1.0
190 410 1.0
190 417 1.0
190 424 1.0
190 431 1.0
190 438 1.0
190 445 1.0
190 452 1.0
190 459 1.0
190 466 1.0
190 473 1.0
190 480 1.0
190 487 1.0
190 494 1.0
190 501 1.0
190 508 1.0
190 515 1.0
191 423 1.0
191 430 1.0
191 437 1.0
191 444 1.0
191 451 1.0
191 458 1.0
191 465 1.0
191 472 1.0
191 479 1.0
191 486 1.0
191 493 1.0
191 500 1.0
191 507 1.0
191 514 1.0
191 521 1.0
191 528 1.0
192 436 1.0
192 443 1.0
192 450 1.0
192 457 1.0
192 464 1.0
192 471 1.0
192 478 1.0
192 485 1.0
192 492 1.0
192 499 1.0
192 506 1.0
192 513 1.0
192 520 1.0
192 527 1.0
192 534 1.0
192 541 1.0
193 449 1.0
193 456 1.0
193 463 1.0
193 470 1.0
193 477 1.0
193 484 1.0
193 491 1.0
193 498 1.0
193 505 1.0
193 512 1.0
193 519 1.0
193 526 1.0
193 533 1.0
193 540 1.0
193 547 1.0
193 554 1.0
194 462 1.0
194 469 1.0
194 476 1.0
194 483 1.0
194 490 1.0
194 497 1.0
194 504 1.0
194 511 1.0
194 518 1.0
194 525 1.0
194 532 1.0
194 539 1.0
194 546 1.0
194 553 1.0
194 560 1.0
194 567 1.0
195 475 1.0
195 482 1.0
195 489 1.0
195 496 1.0
195 503 1.0
195 510 1.0
195 517 1.0
195 524 1.0
195 531 1.0
195 538 1.0
195 545 1.0
195 552 1.0
195 559 1.0
195 566 1.0
195 573 1.0
195 580 1.0
196 488 1.0
196 495 1.0
196 502 1.0
196 509 1.0
196 516 1.0
196 523 1.0
196 530 1.0
196 537 1.0
196 544 1.0
196 551 1.0
196 558 1.0
196 565 1.0
196 572 1.0
196 579 1.0
196 586 1.0
196 593 1.0
197 501 1.0
197 508 1.0
197 515 1.0
197 522 1.0
197 529 1.0
197 536 1.0
197 543 1.0
197 550 1.0
197 557 1.0
197 564 1.0
197 571 1.0
197 578 1.0
197 585 1.0
197 592 1.0
197 599 1.0
197 606 1.0
198 514 1.0
198 521 1.0
198 528 1.0
198 535 1.0
198 542 1.0
198 549 1.0
198 556 1.0
198 563 1.0
198 570 1.0
198 577 1.0
198 584 1.0
198 591 1.0
198 598 1.0
198 605 1.0
198 612 1.0
198 619 1.0
199 527 1.0
199 534 1.0
199 541 1.0
199 548 1.0
199 555 1.0
199 562 1.0
199 569 1.0
199 576 1.0
199 583 1.0
199 590 1.0
199 597 1.0
199 604 1.0
199 611 1.0
199 618 1.0
199 625 1.0
199 632 1.0
200 540 1.0
200 547 1.0
200 554 1.0
200 561 1.0
200 568 1.0
200 575 1.0
200 582 1.0
200 589 1.0
200 596 1.0
200 603 1.0
200 610 1.0
200 617 1.0
200 624 1.0
200 631 1.0
200 638 1.0
200 645 1.0
201 553 1.0
201 560 1.0
201 567 1.0
201 574 1.0
201 581 1.0
201 588 1.0
201 595 1.0
201 602 1.0
201 609 1.0
201 616 1.0
201 623 1.0
201 630 1.0
201 637 1.0
201 644 1.0
201 651 1.0
201 658 1.0
202 566 1.0
202 573 1.0
202 580 1.0
202 587 1.0
202 594 1.0
202 601 1.0
202 608 1.0
202 615 1.0
202 622 1.0
202 629 1.0
202 636 1.0
202 643 1.0
202 650 1.0
202 657 1.0
202 664 1.0
202 671 1.0
203 579 1.0
203 586 1.0
203 593 1.0
203 600 1.0
203 607 1.0
203 614 1.0
203 621 1.0
203 628 1.0
203 635 1.0
203 642 1.0
203 649 1.0
203 656 1.0
203 663 1.0
203 670 1.0
203 677 1.0
203 684 1.0
204 592 1.0
204 599 1.0
204 606 1.0
204 613 1.0
204 620 1.0
204 627 1.0
204 634 1.0
204 641 1.0
204 648 1.0
204 655 1.0
204 662 1.0
204 669 1.0
204 676 1.0
204 683 1.0
204 690 1.0
204 697 1.0
205 605 1.0
205 612 1.0
205 619 1.0
205 626 1.0
205 633 1.0
205 640 1.0
205 647 1.0
205 654 1.0
205 661 1.0
205 668 1.0
205 675 1.0
205 682 1.0
205 689 1.0
205 696 1.0
205 703 1.0
205 710 1.0
206 618 1.0
206 625 1.0
206 632 1.0
206 639 1.0
206 646 1.0
206 653 1.0
206 660 1.0
206 667 1.0
206 674 1.0
206 681 1.0
206 688 1.0
206 695 1.0
206 702 1.0
206 709 1.0
206 716 1.0
206 723 1.0
207 631 1.0
207 638 1.0
207 645 1.0
207 652 1.0
207 659 1.0
207 666 1.0
207 673 1.0
207 680 1.0
207 687 1.0
207 694 1.0
207 701 1.0
207 708 1.0
207 715 1.0
207 722 1.0
207 729 1.0
207 736 1.0
208 644 1.0
208 651 1.0
208 658 1.0
208 665 1.0
208 672 1.0
208 679 1.0
208 686 1.0
208 693 1.0
208 700 1.0
208 707 1.0
208 714 1.0
208 721 1.0
208 728 1.0
208 735 1.0
208 742 1.0
208 749 1.0
209 657 1.0
209 664 1.0
209 671 1.0
209 678 1.0
209 685 1.0
209 692 1.0
209 699 1.0
209 706 1.0
209 713 1.0
209 720 1.0
209 727 1.0
209 734 1.0
209 741 1.0
209 748 1.0
209 755 1.0
209 762 1.0
210 670 1.0
210 677 1.0
210 684 1.0
210 691 1.0
210 698 1.0
210 705 1.0
210 712 1.0
210 719 1.0
210 726 1.0
210 733 1.0
210 740 1.0
210 747 1.0
210 754 1.0
210 761 1.0
210 768 1.0
210 775 1.0
211 683 1.0
211 690 1.0
211 697 1.0
211 704 1.0
211 711 1.0
211 718 1.0
211 725 1.0
211 732 1.0
211 739 1.0
211 746 1.0
211 753 1.0
211 760 1.0
211 767 1.0
211 774 1.0
211 781 1.0
211 788 1.0
212 696 1.0
212 703 1.0
212 710 1.0
212 717 1.0
212 724 1.0
212 731 1.0
212 738 1.0
212 745 1.0
212 752 1.0
212 759 1.0
212 766 1.0
212 773 1.0
212 780 1.0
212 787 1.0
212 794 1.0
212 801 1.0
213 709 1.0
213 716 1.0
213 723 1.0
213 730 1.0
213 737 1.0
213 744 1.0
213 751 1.0
213 758 1.0
213 765 1.0
213 772 1.0
213 779 1.0
213 786 1.0
213 793 1.0
213 800 1.0
213 807 1.0
213 814 1.0
214 722 1.0
214 729 1.0
214 736 1.0
214 743 1.0
214 750 1.0
214 757 1.0
214 764 1.0
214 771 1.0
214 778 1.0
214 785 1.0
214 792 1.0
214 799 1.0
214 806 1.0
214 813 1.0
214 820 1.0
214 827 1.0
215 735 1.0
215 742 1.0
215 749 1.0
215 756 1.0
215 763 1.0
215 770 1.0
215 777 1.0
215 784 1.0
215 791 1.0
215 798 1.0
215 805 1.0
215 812 1.0
215 819 1.0
215 826 1.0
215 833 1.0
215 840 1.0
216 748 1.0
216 755 1.0
216 762 1.0
216 769 1.0
216 776 1.0
216 783 1.0
216 790 1.0
216 797 1.0
216 804 1.0
216 811 1.0
216 818 1.0
216 825 1.0
216 832 1.0
216 839 1.0
216 846 1.0
216 853 1.0
217 761 1.0
217 768 1.0
217 775 1.0
217 782 1.0
217 789 1.0
217 796 1.0
217 803 1.0
217 810 1.0
217 817 1.0
217 824 1.0
217 831 1.0
217 838 1.0
217 845 1.0
217 852 1.0
217 859 1.0
217 866 1.0
218 774 1.0
218 781 1.0
218 788 1.0
218 795 1.0
218 802 1.0
218 809 1.0
218 816 1.0
218 823 1.0
218 830 1.0
218 837 1.0
218 844 1.0
218 851 1.0
218 858 1.0
218 865 1.0
218 872 1.0
218 879 1.0
219 787 1.0
219 794 1.0
219 801 1.0
219 808 1.0
219 815 1.0
219 822 1.0
219 829 1.0
219 836 1.0
219 843 1.0
219 850 1.0
219 857 1.0
219 864 1.0
219 871 1.0
219 878 1.0
219 885 1.0
219 892 1.0
220 800 1.0
220 807 1.0
220 814 1.0
220 821 1.0
220 828 1.0
220 835 1.0
220 842 1.0
220 849 1.0
220 856 1.0
220 863 1.0
220 870 1.0
220 877 1.0
220 884 1.0
220 891 1.0
220 898 1.0
220 905 1.0
221 813 1.0
221 820 1.0
221 827 1.0
221 834 1.0
221 841 1.0
221 848 1.0
221 855 1.0
221 862 1.0
221 869 1.0
221 876 1.0
221 883 1.0
221 890 1.0
221 897 1.0
221 904 1.0
221 911 1.0
221 918 1.0
222 826 1.0
222 833 1.0
222 840 1.0
222 847 1.0
222 854 1.0
222 861 1.0
222 868 1.0
222 875 1.0
222 882 1.0
222 889 1.0
222 896 1.0
222 903 1.0
222 910 1.0
222 917 1.0
222 924 1.0
222 931 1.0
223 839 1.0
223 846 1.0
223 853 1.0
223 860 1.0
223 867 1.0
223 874 1.0
223 881 1.0
223 888 1.0
223 895 1.0
223 902 1.0
223 909 1.0
223 916 1.0
223 923 1.0
223 930 1.0
223 937 1.0
223 944 1.0
224 852 1.0
224 859 1.0
224 866 1.0
224 873 1.0
224 880 1.0
224 887 1.0
224 894 1.0
224 901 1.0
224 908 1.0
224 915 1.0
224 922 1.0
224 929 1.0
224 936 1.0
224 943 1.0
224 950 1.0
224 957 1.0
225 865 1.0
225 872 1.0
225 879 1.0
225 886 1.0
225 893 1.0
225 900 1.0
225 907 1.0
225 914 1.0
225 921 1.0
225 928 1.0
225 935 1.0
225 942 1.0
225 949 1.0
225 956 1.0
225 963 1.0
225 970 1.0
226 878 1.0
226 885 1.0
226 892 1.0
226 899 1.0
226 906 1.0
226 913 1.0
226 920 1.0
226 927 1.0
226 934 1.0
226 941 1.0
226 948 1.0
226 955 1.0
226 962 1.0
226 969 1.0
226 976 1.0
226 983 1.0
227 891 1.0
227 898 1.0
227 905 1.0
227 912 1.0
227 919 1.0
227 926 1.0
227 933 1.0
227 940 1.0
227 947 1.0
227 954 1.0
227 961 1.0
227 968 1.0
227 975 1.0
227 982 1.0
227 989 1.0
227 996 1.0
228 904 1.0
228 911 1.0
228 918 1.0
228 925 1.0
228 932 1.0
228 939 1.0
228 946 1.0
228 953 1.0
228 960 1.0
228 967 1.0
228 974 1.0
228 981 1.0
228 988 1.0
228 995 1.0
228 1002 1.0
228 1009 1.0
229 917 1.0
229 924 1.0
229 931 1.0
229 938 1.0
229 945 1.0
229 952 1.0
229 959 1.0
229 966 1.0
229 973 1.0
229 980 1.0
229 987 1.0
229 994 1.0
229 1001 1.0
229 1008 1.0
229 1015 1.0
229 1022 1.0
230 930 1.0
230 937 1.0
230 944 1.0
230 951 1.0
230 958 1.0
230 965 1.0
230 972 1.0
230 979 1.0
230 986 1.0
230 993 1.0
230 1000 1.0
230 1007 1.0
230 1014 1.0
230 1021 1.0
230 4 1.0
230 11 1.0
231 943 1.0
231 950 1.0
231 957 1.0
231 964 1.0
231 971 1.0
231 978 1.0
231 985 1.0
231 992 1.0
231 999 1.0
231 1006 1.0
231 1013 1.0
231 1020 1.0
231 3 1.0
231 10 1.0
231 17 1.0
231 24 1.0
232 956 1.0
232 963 1.0
232 970 1.0
232 977 1.0
232 984 1.0
232 991 1.0
232 998 1.0
232 1005 1.0
232 1012 1.0
232 1019 1.0
232 2 1.0
232 9 1.0
232 16 1.0
232 23 1.0
232 30 1.0
232 37 1.0
233 969 1.0
233 976 1.0
233 983 1.0
233 990 1.0
233 997 1.0
233 1004 1.0
233 1011 1.0
233 1018 1.0
233 1 1.0
233 8 1.0
233 15 1.0
233 22 1.0
233 29 1.0
233 36 1.0
233 43 1.0
233 50 1.0
234 982 1.0
234 989 1.0
234 996 1.0
234 1003 1.0
234 1010 1.0
234 1017 1.0
234 1024 1.0
234 7 1.0
234 14 1.0
234 21 1.0
234 28 1.0
234 35 1.0
234 42 1.0
234 49 1.0
234 56 1.0
234 63 1.0
235 995 1.0
235 1002 1.0
235 1009 1.0
235 1016 1.0
235 1023 1.0
235 6 1.0
235 13 1.0
235 20 1.0
235 27 1.0
235 34 1.0
235 41 1.0
235 48 1.0
235 55 1.0
235 62 1.0
235 69 1.0
235 76 1.0
236 1008 1.0
236 1015 1.0
236 1022 1.0
236 5 1.0
236 12 1.0
236 19 1.0
236 26 1.0
236 33 1.0
236 40 1.0
236 47 1.0
236 54 1.0
236 61 1.0
236 68 1.0
236 75 1.0
236 82 1.0
236 89 1.0
237 1021 1.0
237 4 1.0
237 11 1.0
237 18 1.0
237 25 1.0
237 32 1.0
237 39 1.0
237 46 1.0
237 53 1.0
237 60 1.0
237 67 1.0
237 74 1.0
237 81 1.0
237 88 1.0
237 95 1.0
237 102 1.0
238 10 1.0
238 17 1.0
238 24 1.0
238 31 1.0
238 38 1.0
238 45 1.0
238 52 1.0
238 59 1.0
238 66 1.0
238 73 1.0
238 80 1.0
238 87 1.0
238 94 1.0
238 101 1.0
238 108 1.0
238 115 1.0
239 23 1.0
239 30 1.0
239 37 1.0
239 44 1.0
239 51 1.0
239 58 1.0
239 65 1.0
239 72 1.0
239 79 1.0
239 86 1.0
239 93 1.0
239 100 1.0
239 107 1.0
239 114 1.0
239 121 1.0
239 128 1.0
240 36 1.0
240 43 1.0
240 50 1.0
240 57 1.0
240 64 1.0
240 71 1.0
240 78 1.0
240 85 1.0
240 92 1.0
240 99 1.0
240 106 1.0
240 113 1.0
240 120 1.0
240 127 1.0
240 134 1.0
240 141 1.0
241 49 1.0
241 56 1.0
241 63 1.0
241 70 1.0
241 77 1.0
241 84 1.0
241 91 1.0
241 98 1.0
241 105 1.0
241 112 1.0
241 119 1.0
241 126 1.0
241 133 1.0
241 140 1.0
241 147 1.0
241 154 1.0
242 62 1.0
242 69 1.0
242 76 1.0
242 83 1.0
242 90 1.0
242 97 1.0
242 104 1.0
242 111 1.0
242 118 1.0
242 125 1.0
242 132 1.0
242 139 1.0
242 146 1.0
242 153 1.0
242 160 1.0
242 167 1.0
243 75 1.0
243 82 1.0
243 89 1.0
243 96 1.0
243 103 1.0
243 110 1.0
243 117 1.0
243 124 1.0
243 131 1.0
243 138 1.0
243 145 1.0
243 152 1.0
243 159 1.0
243 166 1.0
243 173 1.0
243 180 1.0
244 88 1.0
244 95 1.0
244 102 1.0
244 109 1.0
244 116 1.0
244 123 1.0
244 130 1.0
244 137 1.0
244 144 1.0
244 151 1.0
244 158 1.0
244 165 1.0
244 172 1.0
244 179 1.0
244 186 1.0
244 193 1.0
245 101 1.0
245 108 1.0
245 115 1.0
245 122 1.0
245 129 1.0
245 136 1.0
245 143 1.0
245 150 1.0
245 157 1.0
245 164 1.0
245 171 1.0
245 178 1.0
245 185 1.0
245 192 1.0
245 199 1.0
245 206 1.0
246 114 1.0
246 121 1.0
246 128 1.0
246 135 1.0
246 142 1.0
246 149 1.0
246 156 1.0
246 163 1.0
246 170 1.0
246 177 1.0
246 184 1.0
246 191 1.0
246 198 1.0
246 205 1.0
246 212 1.0
246 219 1.0
247 127 1.0
247 134 1.0
247 141 1.0
247 148 1.0
247 155 1.0
247 162 1.0
247 169 1.0
247 176 1.0
247 183 1.0
247 190 1.0
247 197 1.0
247 204 1.0
247 211 1.0
247 218 1.0
247 225 1.0
247 232 1.0
248 140 1.0
248 147 1.0
248 154 1.0
248 161 1.0
248 168 1.0
248 175 1.0
248 182 1.0
248 189 1.0
248 196 1.0
248 203 1.0
248 210 1.0
248 217 1.0
248 224 1.0
248 231 1.0
248 238 1.0
248 245 1.0
249 153 1.0
249 160 1.0
249 167 1.0
249 174 1.0
249 181 1.0
249 188 1.0
249 195 1.0
249 202 1.0
249 209 1.0
249 216 1.0
249 223 1.0
249 230 1.0
249 237 1.0
249 244 1.0
249 251 1.0
249 258 1.0
250 166 1.0
250 173 1.0
250 180 1.0
250 187 1.0
250 194 1.0
250 201 1.0
250 208 1.0
250 215 1.0
250 222 1.0
250 229 1.0
250 236 1.0
250 243 1.0
250 250 1.0
250 257 1.0
250 264 1.0
250 271 1.0
251 179 1.0
251 186 1.0
251 193 1.0
251 200 1.0
251 207 1.0
251 214 1.0
251 221 1.0
251 228 1.0
251 235 1.0
251 242 1.0
251 249 1.0
251 256 1.0
251 263 1.0
251 270 1.0
251 277 1.0
251 284 1.0
252 192 1.0
252 199 1.0
252 206 1.0
252 213 1.0
252 220 1.0
252 227 1.0
252 234 1.0
252 241 1.0
252 248 1.0
252 255 1.0
252 262 1.0
252 269 1.0
252 276 1.0
252 283 1.0
252 290 1.0
252 297 1.0
253 205 1.0
253 212 1.0
253 219 1.0
253 226 1.0
253 233 1.0
253 240 1.0
253 247 1.0
253 254 1.0
253 261 1.0
253 268 1.0
253 275 1.0
253 282 1.0
253 289 1.0
253 296 1.0
253 303 1.0
253 310 1.0
254 218 1.0
254 225 1.0
254 232 1.0
254 239 1.0
254 246 1.0
254 253 1.0
254 260 1.0
254 267 1.0
254 274 1.0
254 281 1.0
254 288 1.0
254 295 1.0
254 302 1.0
254 309 1.0
254 316 1.0
254 323 1.0
255 231 1.0
255 238 1.0
255 245 1.0
255 252 1.0
255 259 1.0
255 266 1.0
255 273 1.0
255 280 1.0
255 287 1.0
255 294 1.0
255 301 1.0
255 308 1.0
255 315 1.0
255 322 1.0
255 329 1.0
255 336 1.0
256 244 1.0
256 251 1.0
256 258 1.0
256 265 1.0
256 272 1.0
256 279 1.0
256 286 1.0
256 293 1.0
256 300 1.0
256 307 1.0
256 314 1.0
256 321 1.0
256 328 1.0
256 335 1.0
256 342 1.0
256 349 1.0
257 257 1.0
257 264 1.0
257 271 1.0
257 278 1.0
257 285 1.0
257 292 1.0
257 299 1.0
257 306 1.0
257 313 1.0
257 320 1.0
257 327 1.0
257 334 1.0
257 341 1.0
257 348 1.0
257 355 1.0
257 362 1.0
258 270 1.0
258 277 1.0
258 284 1.0
258 291 1.0
258 298 1.0
258 305 1.0
258 312 1.0
258 319 1.0
258 326 1.0
258 333 1.0
258 340 1.0
258 347 1.0
258 354 1.0
258 361 1.0
258 368 1.0
258 375 1.0
259 283 1.0
259 290 1.0
259 297 1.0
259 304 1.0
259 311 1.0
259 318 1.0
259 325 1.0
259 332 1.0
259 339 1.0
259 346 1.0
259 353 1.0
259 360 1.0
259 367 1.0
259 374 1.0
259 381 1.0
259 388 1.0
260 296 1.0
260 303 1.0
260 310 1.0
260 317 1.0
260 324 1.0
260 331 1.0
260 338 1.0
260 345 1.0
260 352 1.0
260 359 1.0
260 366 1.0
260 373 1.0
260 380 1.0
260 387 1.0
260 394 1.0
260 401 1.0
261 309 1.0
261 316 1.0
261 323 1.0
261 330 1.0
261 337 1.0
261 344 1.0
261 351 1.0
261 358 1.0
261 365 1.0
261 372 1.0
261 379 1.0
261 386 1.0
261 393 1.0
261 400 1.0
261 407 1.0
261 414 1.0
262 322 1.0
262 329 1.0
262 336 1.0
262 343 1.0
262 350 1.0
262 357 1.0
262 364 1.0
262 371 1.0
262 378 1.0
262 385 1.0
262 392 1.0
262 399 1.0
262 406 1.0
262 413 1.0
262 420 1.0
262 427 1.0
263 335 1.0
263 342 1.0
263 349 1.0
263 356 1.0
263 363 1.0
263 370 1.0
263 377 1.0
263 384 1.0
263 391 1.0
263 398 1.0
263 405 1.0
263 412 1.0
263 419 1.0
263 426 1.0
263 433 1.0
263 440 1.0
264 348 1.0
264 355 1.0
264 362 1.0
264 369 1.0
264 376 1.0
264 383 1.0
264 390 1.0
264 397 1.0
264 404 1.0
264 411 1.0
264 418 1.0
264 425 1.0
264 432 1.0
264 439 1.0
264 446 1.0
264 453 1.0
265 361 1.0
265 368 1.0
265 375 1.0
265 382 1.0
265 389 1.0
265 396 1.0
265 403 1.0
265 410 1.0
265 417 1.0
265 424 1.0
265 431 1.0
265 438 1.0
265 445 1.0
265 452 1.0
265 459 1.0
265 466 1.0
266 374 1.0
266 381 1.0
266 388 1.0
266 395 1.0
266 402 1.0
266 409 1.0
266 416 1.0
266 423 1.0
266 430 1.0
266 437 1.0
266 444 1.0
266 451 1.0
266 458 1.0
266 465 1.0
266 472 1.0
266 479 1.0
267 387 1.0
267 394 1.0
267 401 1.0
267 408 1.0
267 415 1.0
267 422 1.0
267 429 1.0
267 436 1.0
267 443 1.0
267 450 1.0
267 457 1.0
267 464 1.0
267 471 1.0
267 478 1.0
267 485 1.0
267 492 1.0
268 400 1.0
268 407 1.0
268 414 1.0
268 421 1.0
268 428 1.0
268 435 1.0
268 442 1.0
268 449 1.0
268 456 1.0
268 463 1.0
268 470 1.0
268 477 1.0
268 484 1.0
268 491 1.0
268 498 1.0
268 505 1.0
269 413 1.0
269 420 1.0
269 427 1.0
269 434 1.0
269 441 1.0
269 448 1.0
269 455 1.0
269 462 1.0
269 469 1.0
269 476 1.0
269 483 1.0
269 490 1.0
269 497 1.0
269 504 1.0
269 511 1.0
269 518 1.0
270 426 1.0
270 433 1.0
270 440 1.0
270 447 1.0
270 454 1.0
270 461 1.0
270 468 1.0
270 475 1.0
270 482 1.0
270 489 1.0
270 496 1.0
270 503 1.0
270 510 1.0
270 517 1.0
270 524 1.0
270 531 1.0
271 439 1.0
271 446 1.0
271 453 1.0
271 460 1.0
271 467 1.0
271 474 1.0
271 481 1.0
271 488 1.0
271 495 1.0
271 502 1.0
271 509 1.0
271 516 1.0
271 523 1.0
271 530 1.0
271 537 1.0
271 544 1.0
272 452 1.0
272 459 1.0
272 466 1.0
272 473 1.0
272 480 1.0
272 487 1.0
272 494 1.0
272 501 1.0
272 508 1.0
272 515 1.0
272 522 1.0
272 529 1.0
272 536 1.0
272 543 1.0
272 550 1.0
272 557 1.0
273 465 1.0
273 472 1.0
273 479 1.0
273 486 1.0
273 493 1.0
273 500 1.0
273 507 1.0
273 514 1.0
273 521 1.0
273 528 1.0
273 535 1.0
273 542 1.0
273 549 1.0
273 556 1.0
273 563 1.0
273 570 1.0
274 478 1.0
274 485 1.0
274 492 1.0
274 499 1.0
274 506 1.0
274 513 1.0
274 520 1.0
274 527 1.0
274 534 1.0
274 541 1.0
274 548 1.0
274 555 1.0
274 562 1.0
274 569 1.0
274 576 1.0
274 583 1.0
275 491 1.0
275 498 1.0
275 505 1.0
275 512 1.0
275 519 1.0
275 526 1.0
275 533 1.0
275 540 1.0
275 547 1.0
275 554 1.0
275 561 1.0
275 568 1.0
275 575 1.0
275 582 1.0
275 589 1.0
275 596 1.0
276 504 1.0
276 511 1.0
276 518 1.0
276 525 1.0
276 532 1.0
276 539 1.0
276 546 1.0
276 553 1.0
276 560 1.0
276 567 1.0
276 574 1.0
276 581 1.0
276 588 1.0
276 595 1.0
276 602 1.0
276 609 1.0
277 517 1.0
277 524 1.0
277 531 1.0
277 538 1.0
277 545 1.0
277 552 1.0
277 559 1.0
277 566 1.0
277 573 1.0
277 580 1.0
277 587 1.0
277 594 1.0
277 601 1.0
277 608 1.0
277 615 1.0
277 622 1.0
278 530 1.0
278 537 1.0
278 544 1.0
278 551 1.0
278 558 1.0
278 565 1.0
278 572 1.0
278 579 1.0
278 586 1.0
278 593 1.0
278 600 1.0
278 607 1.0
278 614 1.0
278 621 1.0
278 628 1.0
278 635 1.0
279 543 1.0
279 550 1.0
279 557 1.0
279 564 1.0
279 571 1.0
279 578 1.0
279 585 1.0
279 592 1.0
279 599 1.0
279 606 1.0
279 613 1.0
279 620 1.0
279 627 1.0
279 634 1.0
279 641 1.0
279 648 1.0
280 556 1.0
280 563 1.0
280 570 1.0
280 577 1.0
280 584 1.0
280 591 1.0
280 598 1.0
280 605 1.0
280 612 1.0
280 619 1.0
280 626 1.0
280 633 1.0
280 640 1.0
280 647 1.0
280 654 1.0
280 661 1.0
281 569 1.0
281 576 1.0
281 583 1.0
281 590 1.0
281 597 1.0
281 604 1.0
281 611 1.0
281 618 1.0
281 625 1.0
281 632 1.0
281 639 1.0
281 646 1.0
281 653 1.0
281 660 1.0
281 667 1.0
281 674 1.0
282 582 1.0
282 589 1.0
282 596 1.0
282 603 1.0
282 610 1.0
282 617 1.0
282 624 1.0
282 631 1.0
282 638 1.0
282 645 1.0
282 652 1.0
282 659 1.0
282 666 1.0
282 673 1.0
282 680 1.0
282 687 1.0
283 595 1.0
283 602 1.0
283 609 1.0
283 616 1.0
283 623 1.0
283 630 1.0
283 637 1.0
283 644 1.0
283 651 1.0
283 658 1.0
283 665 1.0
283 672 1.0
283 679 1.0
283 686 1.0
283 693 1.0
283 700 1.0
284 608 1.0
284 615 1.0
284 622 1.0
284 629 1.0
284 636 1.0
284 643 1.0
284 650 1.0
284 657 1.0
284 664 1.0
284 671 1.0
284 678 1.0
284 685 1.0
284 692 1.0
284 699 1.0
284 706 1.0
284 713 1.0
285 621 1.0
285 628 1.0
285 635 1.0
285 642 1.0
285 649 1.0
285 656 1.0
285 663 1.0
285 670 1.0
285 677 1.0
285 684 1.0
285 691 1.0
285 698 1.0
285 705 1.0
285 712 1.0
285 719 1.0
285 726 1.0
286 634 1.0
286 641 1.0
286 648 1.0
286 655 1.0
286 662 1.0
286 669 1.0
286 676 1.0
286 683 1.0
286 690 1.0
286 697 1.0
286 704 1.0
286 711 1.0
286 718 1.0
286 725 1.0
286 732 1.0
286 739 1.0
287 647 1.0
287 654 1.0
287 661 1.0
287 668 1.0
287 675 1.0
287 682 1.0
287 689 1.0
287 696 1.0
287 703 1.0
287 710 1.0
287 717 1.0
287 724 1.0
287 731 1.0
287 738 1.0
287 745 1.0
287 752 1.0
288 660 1.0
288 667 1.0
288 674 1.0
288 681 1.0
288 688 1.0
288 695 1.0
288 702 1.0
288 709 1.0
288 716 1.0
288 723 1.0
288 730 1.0
288 737 1.0
288 744 1.0
288 751 1.0
288 758 1.0
288 765 1.0
289 673 1.0
289 680 1.0
289 687 1.0
289 694 1.0
289 701 1.0
289 708 1.0
289 715 1.0
289 722 1.0
289 729 1.0
289 736 1.0
289 743 1.0
289 750 1.0
289 757 1.0
289 764 1.0
289 771 1.0
289 778 1.0
290 686 1.0
290 693 1.0
290 700 1.0
290 707 1.0
290 714 1.0
290 721 1.0
290 728 1.0
290 735 1.0
290 742 1.0
290 749 1.0
290 756 1.0
290 763 1.0
290 770 1.0
290 777 1.0
290 784 1.0
290 791 1.0
291 699 1.0
291 706 1.0
291 713 1.0
291 720 1.0
291 727 1.0
291 734 1.0
291 741 1.0
291 748 1.0
291 755 1.0
291 762 1.0
291 769 1.0
291 776 1.0
291 783 1.0
291 790 1.0
291 797 1.0
291 804 1.0
292 712 1.0
292 719 1.0
292 726 1.0
292 733 1.0
292 740 1.0
292 747 1.0
292 754 1.0
292 761 1.0
292 768 1.0
292 775 1.0
292 782 1.0
292 789 1.0
292 796 1.0
292 803 1.0
292 810 1.0
292 817 1.0
293 725 1.0
293 732 1.0
293 739 1.0
293 746 1.0
293 753 1.0
293 760 1.0
293 767 1.0
293 774 1.0
293 781 1.0
293 788 1.0
293 795 1.0
293 802 1.0
293 809 1.0
293 816 1.0
293 823 1.0
293 830 1.0
294 738 1.0
294 745 1.0
294 752 1.0
294 759 1.0
294 766 1.0
294 773 1.0
294 780 1.0
294 787 1.0
294 794 1.0
294 801 1.0
294 808 1.0
294 815 1.0
294 822 1.0
294 829 1.0
294 836 1.0
294 843 1.0
295 751 1.0
295 758 1.0
295 765 1.0
295 772 1.0
295 779 1.0
295 786 1.0
295 793 1.0
295 800 1.0
295 807 1.0
295 814 1.0
295 821 1.0
295 828 1.0
295 835 1.0
295 842 1.0
295 849 1.0
295 856 1.0
296 764 1.0
296 771 1.0
296 778 1.0
296 785 1.0
296 792 1.0
296 799 1.0
296 806 1.0
296 813 1.0
296 820 1.0
296 827 1.0
296 834 1.0
296 841 1.0
296 848 1.0
296 855 1.0
296 862 1.0
296 869 1.0
297 777 1.0
297 784 1.0
297 791 1.0
297 798 1.0
297 805 1.0
297 812 1.0
297 819 1.0
297 826 1.0
297 833 1.0
297 840 1.0
297 847 1.0
297 854 1.0
297 861 1.0
297 868 1.0
297 875 1.0
297 882 1.0
298 790 1.0
298 797 1.0
298 804 1.0
298 811 1.0
298 818 1.0
298 825 1.0
298 832 1.0
298 839 1.0
298 846 1.0
298 853 1.0
298 860 1.0
298 867 1.0
298 874 1.0
298 881 1.0
298 888 1.0
298 895 1.0
299 803 1.0
299 810 1.0
299 817 1.0
299 824 1.0
299 831 1.0
299 838 1.0
299 845 1.0
299 852 1.0
299 859 1.0
299 866 1.0
299 873 1.0
299 880 1.0
299 887 1.0
299 894 1.0
299 901 1.0
299 908 1.0
300 816 1.0
300 823 1.0
300 830 1.0
300 837 1.0
300 844 1.0
300 851 1.0
300 858 1.0
300 865 1.0
300 872 1.0
300 879 1.0
300 886 1.0
300 893 1.0
300 900 1.0
300 907 1.0
300 914 1.0
300 921 1.0
301 829 1.0
301 836 1.0
301 843 1.0
301 850 1.0
301 857 1.0
301 864 1.0
301 871 1.0
301 878 1.0
301 885 1.0
301 892 1.0
301 899 1.0
301 906 1.0
301 913 1.0
301 920 1.0
301 927 1.0
301 934 1.0
302 842 1.0
302 849 1.0
302 856 1.0
302 863 1.0
302 870 1.0
302 877 1.0
302 884 1.0
302 891 1.0
302 898 1.0
302 905 1.0
302 912 1.0
302 919 1.0
302 926 1.0
302 933 1.0
302 940 1.0
302 947 1.0
303 855 1.0
303 862 1.0
303 869 1.0
303 876 1.0
303 883 1.0
303 890 1.0
303 897 1.0
303 904 1.0
303 911 1.0
303 918 1.0
303 925 1.0
303 932 1.0
303 939 1.0
303 946 1.0
303 953 1.0
303 960 1.0
304 868 1.0
304 875 1.0
304 882 1.0
304 889 1.0
304 896 1.0
304 903 1.0
304 910 1.0
304 917 1.0
304 924 1.0
304 931 1.0
304 938 1.0
304 945 1.0
304 952 1.0
304 959 1.0
304 966 1.0
304 973 1.0
305 881 1.0
305 888 1.0
305 895 1.0
305 902 1.0
305 909 1.0
305 916 1.0
305 923 1.0
305 930 1.0
305 937 1.0
305 944 1.0
305 951 1.0
305 958 1.0
305 965 1.0
305 972 1.0
305 979 1.0
305 986 1.0
306 894 1.0
306 901 1.0
306 908 1.0
306 915 1.0
306 922 1.0
306 929 1.0
306 936 1.0
306 943 1.0
306 950 1.0
306 957 1.0
306 964 1.0
306 971 1.0
306 978 1.0
306 985 1.0
306 992 1.0
306 999 1.0
307 907 1.0
307 914 1.0
307 921 1.0
307 928 1.0
307 935 1.0
307 942 1.0
307 949 1.0
307 956 1.0
307 963 1.0
307 970 1.0
307 977 1.0
307 984 1.0
307 991 1.0
307 998 1.0
307 1005 1.0
307 1012 1.0
308 920 1.0
308 927 1.0
308 934 1.0
308 941 1.0
308 948 1.0
308 955 1.0
308 962 1.0
308 969 1.0
308 976 1.0
308 983 1.0
308 990 1.0
308 997 1.0
308 1004 1.0
308 1011 1.0
308 1018 1.0
308 1 1.0
309 933 1.0
309 940 1.0
309 947 1.0
309 954 1.0
309 961 1.0
309 968 1.0
309 975 1.0
309 982 1.0
309 989 1.0
309 996 1.0
309 1003 1.0
309 1010 1.0
309 1017 1.0
309 1024 1.0
309 7 1.0
309 14 1.0
310 946 1.0
310 953 1.0
310 960 1.0
310 967 1.0
310 974 1.0
310 981 1.0
310 988 1.0
310 995 1.0
310 1002 1.0
310 1009 1.0
310 1016 1.0
310 1023 1.0
310 6 1.0
310 13 1.0
310 20 1.0
310 27 1.0
311 959 1.0
311 966 1.0
311 973 1.0
311 980 1.0
311 987 1.0
311 994 1.0
311 1001 1.0
311 1008 1.0
311 1015 1.0
311 1022 1.0
311 5 1.0
311 12 1.0
311 19 1.0
311 26 1.0
311 33 1.0
311 40 1.0
312 972 1.0
312 979 1.0
312 986 1.0
312 993 1.0
312 1000 1.0
312 1007 1.0
312 1014 1.0
312 1021 1.0
312 4 1.0
312 11 1.0
312 18 1.0
312 25 1.0
312 32 1.0
312 39 1.0
312 46 1.0
312 53 1.0
313 985 1.0
313 992 1.0
313 999 1.0
313 1006 1.0
313 1013 1.0
313 1020 1.0
313 3 1.0
313 10 1.0
313 17 1.0
313 24 1.0
313 31 1.0
313 38 1.0
313 45 1.0
313 52 1.0
313 59 1.0
313 66 1.0
314 998 1.0
314 1005 1.0
314 1012 1.0
314 1019 1.0
314 2 1.0
314 9 1.0
314 16 1.0
314 23 1.0
314 30 1.0
314 37 1.0
314 44 1.0
314 51 1.0
314 58 1.0
314 65 1.0
314 72 1.0
314 79 1.0
315 1011 1.0
315 1018 1.0
315 1 1.0
315 8 1.0
315 15 1.0
315 22 1.0
315 29 1.0
315 36 1.0
315 43 1.0
315 50 1.0
315 57 1.0
315 64 1.0
315 71 1.0
315 78 1.0
315 85 1.0
315 92 1.0
316 1024 1.0
316 7 1.0
316 14 1.0
316 21 1.0
316 28 1.0
316 35 1.0
316 42 1.0
316 49 1.0
316 56 1.0
316 63 1.0
316 70 1.0
316 77 1.0
316 84 1.0
316 91 1.0
316 98 1.0
316 105 1.0
317 13 1.0
317 20 1.0
317 27 1.0
317 34 1.0
317 41 1.0
317 48 1.0
317 55 1.0
317 62 1.0
317 69 1.0
317 76 1.0
317 83 1.0
317 90 1.0
317 97 1.0
317 104 1.0
317 111 1.0
317 118 1.0
318 26 1.0
318 33 1.0
318 40 1.0
318 47 1.0
318 54 1.0
318 61 1.0
318 68 1.0
318 75 1.0
318 82 1.0
318 89 1.0
318 96 1.0
318 103 1.0
318 110 1.0
318 117 1.0
318 124 1.0
318 131 1.0
319 39 1.0
319 46 1.0
319 53 1.0
319 60 1.0
319 67 1.0
319 74 1.0
319 81 1.0
319 88 1.0
319 95 1.0
319 102 1.0
319 109 1.0
319 116 1.0
319 123 1.0
319 130 1.0
319 137 1.0
319 144 1.0
320 52 1.0
320 59 1.0
320 66 1.0
320 73 1.0
320 80 1.0
320 87 1.0
320 94 1.0
320 101 1.0
320 108 1.0
320 115 1.0
320 122 1.0
320 129 1.0
320 136 1.0
320 143 1.0
320 150 1.0
320 157 1.0
321 65 1.0
321 72 1.0
321 79 1.0
321 86 1.0
321 93 1.0
321 100 1.0
321 107 1.0
321 114 1.0
321 121 1.0
321 128 1.0
321 135 1.0
321 142 1.0
321 149 1.0
321 156 1.0
321 163 1.0
321 170 1.0
322 78 1.0
322 85 1.0
322 92 1.0
322 99 1.0
322 106 1.0
322 113 1.0
322 120 1.0
322 127 1.0
322 134 1.0
322 141 1.0
322 148 1.0
322 155 1.0
322 162 1.0
322 169 1.0
322 176 1.0
322 183 1.0
323 91 1.0
323 98 1.0
323 105 1.0
323 112 1.0
323 119 1.0
323 126 1.0
323 133 1.0
323 140 1.0
323 147 1.0
323 154 1.0
323 161 1.0
323 168 1.0
323 175 1.0
323 182 1.0
323 189 1.0
323 196 1.0
324 104 1.0
324 111 1.0
324 118 1.0
324 125 1.0
324 132 1.0
324 139 1.0
324 146 1.0
324 153 1.0
324 160 1.0
324 167 1.0
324 174 1.0
324 181 1.0
324 188 1.0
324 195 1.0
324 202 1.0
324 209 1.0
325 117 1.0
325 124 1.0
325 131 1.0
325 138 1.0
325 145 1.0
325 152 1.0
325 159 1.0
325 166 1.0
325 173 1.0
325 180 1.0
325 187 1.0
325 194 1.0
325 201 1.0
325 208 1.0
325 215 1.0
325 222 1.0
326 130 1.0
326 137 1.0
326 144 1.0
326 151 1.0
326 158 1.0
326 165 1.0
326 172 1.0
326 179 1.0
326 186 1.0
326 193 1.0
326 200 1.0
326 207 1.0
326 214 1.0
326 221 1.0
326 228 1.0
326 235 1.0
327 143 1.0
327 150 1.0
327 157 1.0
327 164 1.0
327 171 1.0
327 178 1.0
327 185 1.0
327 192 1.0
327 199 1.0
327 206 1.0
327 213 1.0
327 220 1.0
327 227 1.0
327 234 1.0
327 241 1.0
327 248 1.0
328 156 1.0
328 163 1.0
328 170 1.0
328 177 1.0
328 184 1.0
328 191 1.0
328 198 1.0
328 205 1.0
328 212 1.0
328 219 1.0
328 226 1.0
328 233 1.0
328 240 1.0
328 247 1.0
328 254 1.0
328 261 1.0
329 169 1.0
329 176 1.0
329 183 1.0
329 190 1.0
329 197 1.0
329 204 1.0
329 211 1.0
329 218 1.0
329 225 1.0
329 232 1.0
329 239 1.0
329 246 1.0
329 253 1.0
329 260 1.0
329 267 1.0
329 274 1.0
330 182 1.0
330 189 1.0
330 196 1.0
330 203 1.0
330 210 1.0
330 217 1.0
330 224 1.0
330 231 1.0
330 238 1.0
330 245 1.0
330 252 1.0
330 259 1.0
330 266 1.0
330 273 1.0
330 280 1.0
330 287 1.0
331 195 1.0
331 202 1.0
331 209 1.0
331 216 1.0
331 223 1.0
331 230 1.0
331 237 1.0
331 244 1.0
331 251 1.0
331 258 1.0
331 265 1.0
331 272 1.0
331 279 1.0
331 286 1.0
331 293 1.0
331 300 1.0
332 208 1.0
332 215 1.0
332 222 1.0
332 229 1.0
332 236 1.0
332 243 1.0
332 250 1.0
332 257 1.0
332 264 1.0
332 271 1.0
332 278 1.0
332 285 1.0
332 292 1.0
332 299 1.0
332 306 1.0
332 313 1.0
333 221 1.0
333 228 1.0
333 235 1.0
333 242 1.0
333 249 1.0
333 256 1.0
333 263 1.0
333 270 1.0
333 277 1.0
333 284 1.0
333 291 1.0
333 298 1.0
333 305 1.0
333 312 1.0
333 319 1.0
333 326 1.0
334 234 1.0
334 241 1.0
334 248 1.0
334 255 1.0
334 262 1.0
334 269 1.0
334 276 1.0
334 283 1.0
334 290 1.0
334 297 1.0
334 304 1.0
334 311 1.0
334 318 1.0
334 325 1.0
334 332 1.0
334 339 1.0
335 247 1.0
335 254 1.0
335 261 1.0
335 268 1.0
335 275 1.0
335 282 1.0
335 289 1.0
335 296 1.0
335 303 1.0
335 310 1.0
335 317 1.0
335 324 1.0
335 331 1.0
335 338 1.0
335 345 1.0
335 352 1.0
336 260 1.0
336 267 1.0
336 274 1.0
336 281 1.0
336 288 1.0
336 295 1.0
336 302 1.0
336 309 1.0
336 316 1.0
336 323 1.0
336 330 1.0
336 337 1.0
336 344 1.0
336 351 1.0
336 358 1.0
336 365 1.0
337 273 1.0
337 280 1.0
337 287 1.0
337 294 1.0
337 301 1.0
337 308 1.0
337 315 1.0
337 322 1.0
337 329 1.0
337 336 1.0
337 343 1.0
337 350 1.0
337 357 1.0
337 364 1.0
337 371 1.0
337 378 1.0
338 286 1.0
338 293 1.0
338 300 1.0
338 307 1.0
338 314 1.0
338 321 1.0
338 328 1.0
338 335 1.0
338 342 1.0
338 349 1.0
338 356 1.0
338 363 1.0
338 370 1.0
338 377 1.0
338 384 1.0
338 391 1.0
339 299 1.0
339 306 1.0
339 313 1.0
339 320 1.0
339 327 1.0
339 334 1.0
339 341 1.0
339 348 1.0
339 355 1.0
339 362 1.0
339 369 1.0
339 376 1.0
339 383 1.0
339 390 1.0
339 397 1.0
339 404 1.0
340 312 1.0
340 319 1.0
340 326 1.0
340 333 1.0
340 340 1.0
340 347 1.0
340 354 1.0
340 361 1.0
340 368 1.0
340 375 1.0
340 382 1.0
340 389 1.0
340 396 1.0
340 403 1.0
340 410 1.0
340 417 1.0
341 325 1.0
341 332 1.0
341 339 1.0
341 346 1.0
341 353 1.0
341 360 1.0
341 367 1.0
341 374 1.0
341 381 1.0
341 388 1.0
341 395 1.0
341 402 1.0
341 409 1.0
341 416 1.0
341 423 1.0
341 430 1.0
342 338 1.0
342 345 1.0
342 352 1.0
342 359 1.0
342 366 1.0
342 373 1.0
342 380 1.0
342 387 1.0
342 394 1.0
342 401 1.0
342 408 1.0
342 415 1.0
342 422 1.0
342 429 1.0
342 436 1.0
342 443 1.0
343 351 1.0
343 358 1.0
343 365 1.0
343 372 1.0
343 379 1.0
343 386 1.0
343 393 1.0
343 400 1.0
343 407 1.0
343 414 1.0
343 421 1.0
343 428 1.0
343 435 1.0
343 442 1.0
343 449 1.0
343 456 1.0
344 364 1.0
344 371 1.0
344 378 1.0
344 385 1.0
344 392 1.0
344 399 1.0
344 406 1.0
344 413 1.0
344 420 1.0
344 427 1.0
344 434 1.0
344 441 1.0
344 448 1.0
344 455 1.0
344 462 1.0
344 469 1.0
345 377 1.0
345 384 1.0
345 391 1.0
345 398 1.0
345 405 1.0
345 412 1.0
345 419 1.0
345 426 1.0
345 433 1.0
345 440 1.0
345 447 1.0
345 454 1.0
345 461 1.0
345 468 1.0
345 475 1.0
345 482 1.0
346 390 1.0
346 397 1.0
346 404 1.0
346 411 1.0
346 418 1.0
346 425 1.0
346 432 1.0
346 439 1.0
346 446 1.0
346 453 1.0
346 460 1.0
346 467 1.0
346 474 1.0
346 481 1.0
346 488 1.0
346 495 1.0
347 403 1.0
347 410 1.0
347 417 1.0
347 424 1.0
347 431 1.0
347 438 1.0
347 445 1.0
347 452 1.0
347 459 1.0
347 466 1.0
347 473 1.0
347 480 1.0
347 487 1.0
347 494 1.0
347 501 1.0
347 508 1.0
348 416 1.0
348 423 1.0
348 430 1.0
348 437 1.0
348 444 1.0
348 451 1.0
348 458 1.0
348 465 1.0
348 472 1.0
348 479 1.0
348 486 1.0
348 493 1.0
348 500 1.0
348 507 1.0
348 514 1.0
348 521 1.0
349 429 1.0
349 436 1.0
349 443 1.0
349 450 1.0
349 457 1.0
349 464 1.0
349 471 1.0
349 478 1.0
349 485 1.0
349 492 1.0
349 499 1.0
349 506 1.0
349 513 1.0
349 520 1.0
349 527 1.0
349 534 1.0
350 442 1.0
350 449 1.0
350 456 1.0
350 463 1.0
350 470 1.0
350 477 1.0
350 484 1.0
350 491 1.0
350 498 1.0
350 505 1.0
350 512 1.0
350 519 1.0
350 526 1.0
350 533 1.0
350 540 1.0
350 547 1.0
351 455 1.0
351 462 1.0
351 469 1.0
351 476 1.0
351 483 1.0
351 490 1.0
351 497 1.0
351 504 1.0
351 511 1.0
351 518 1.0
351 525 1.0
351 532 1.0
351 539 1.0
351 546 1.0
351 553 1.0
351 560 1.0
352 468 1.0
352 475 1.0
352 482 1.0
352 489 1.0
352 496 1.0
352 503 1.0
352 510 1.0
352 517 1.0
352 524 1.0
352 531 1.0
352 538 1.0
352 545 1.0
352 552 1.0
352 559 1.0
352 566 1.0
352 573 1.0
353 481 1.0
353 488 1.0
353 495 1.0
353 502 1.0
353 509 1.0
353 516 1.0
353 523 1.0
353 530 1.0
353 537 1.0
353 544 1.0
353 551 1.0
353 558 1.0
353 565 1.0
353 572 1.0
353 579 1.0
353 586 1.0
354 494 1.0
354 501 1.0
354 508 1.0
354 515 1.0
354 522 1.0
354 529 1.0
354 536 1.0
354 543 1.0
354 550 1.0
354 557 1.0
354 564 1.0
354 571 1.0
354 578 1.0
354 585 1.0
354 592 1.0
354 599 1.0
355 507 1.0
355 514 1.0
355 521 1.0
355 528 1.0
355 535 1.0
355 542 1.0
355 549 1.0
355 556 1.0
355 563 1.0
355 570 1.0
355 577 1.0
355 584 1.0
355 591 1.0
355 598 1.0
355 605 1.0
355 612 1.0
356 520 1.0
356 527 1.0
356 534 1.0
356 541 1.0
356 548 1.0
356 555 1.0
356 562 1.0
356 569 1.0
356 576 1.0
356 583 1.0
356 590 1.0
356 597 1.0
356 604 1.0
356 611 1.0
356 618 1.0
356 625 1.0
357 533 1.0
357 540 1.0
357 547 1.0
357 554 1.0
357 561 1.0
357 568 1.0
357 575 1.0
357 582 1.0
357 589 1.0
357 596 1.0
357 603 1.0
357 610 1.0
357 617 1.0
357 624 1.0
357 631 1.0
357 638 1.0
358 546 1.0
358 553 1.0
358 560 1.0
358 567 1.0
358 574 1.0
358 581 1.0
358 588 1.0
358 595 1.0
358 602 1.0
358 609 1.0
358 616 1.0
358 623 1.0
358 630 1.0
358 637 1.0
358 644 1.0
358 651 1.0
359 559 1.0
359 566 1.0
359 573 1.0
359 580 1.0
359 587 1.0
359 594 1.0
359 601 1.0
359 608 1.0
359 615 1.0
359 622 1.0
359 629 1.0
359 636 1.0
359 643 1.0
359 650 1.0
359 657 1.0
359 664 1.0
360 572 1.0
360 579 1.0
360 586 1.0
360 593 1.0
360 600 1.0
360 607 1.0
360 614 1.0
360 621 1.0
360 628 1.0
360 635 1.0
360 642 1.0
360 649 1.0
360 656 1.0
360 663 1.0
360 670 1.0
360 677 1.0
361 585 1.0
361 592 1.0
361 599 1.0
361 606 1.0
361 613 1.0
361 620 1.0
361 627 1.0
361 634 1.0
361 641 1.0
361 648 1.0
361 655 1.0
361 662 1.0
361 669 1.0
361 676 1.0
361 683 1.0
361 690 1.0
362 598 1.0
362 605 1.0
362 612 1.0
362 619 1.0
362 626 1.0
362 633 1.0
362 640 1.0
362 647 1.0
362 654 1.0
362 661 1.0
362 668 1.0
362 675 1.0
362 682 1.0
362 689 1.0
362 696 1.0
362 703 1.0
363 611 1.0
363 618 1.0
363 625 1.0
363 632 1.0
363 639 1.0
363 646 1.0
363 653 1.0
363 660 1.0
363 667 1.0
363 674 1.0
363 681 1.0
363 688 1.0
363 695 1.0
363 702 1.0
363 709 1.0
363 716 1.0
364 624 1.0
364 631 1.0
364 638 1.0
364 645 1.0
364 652 1.0
364 659 1.0
364 666 1.0
364 673 1.0
364 680 1.0
364 687 1.0
364 694 1.0
364 701 1.0
364 708 1.0
364 715 1.0
364 722 1.0
364 729 1.0
365 637 1.0
365 644 1.0
365 651 1.0
365 658 1.0
365 665 1.0
365 672 1.0
365 679 1.0
365 686 1.0
365 693 1.0
365 700 1.0
365 707 1.0
365 714 1.0
365 721 1.0
365 728 1.0
365 735 1.0
365 742 1.0
366 650 1.0
366 657 1.0
366 664 1.0
366 671 1.0
366 678 1.0
366 685 1.0
366 692 1.0
366 699 1.0
366 706 1.0
366 713 1.0
366 720 1.0
366 727 1.0
366 734 1.0
366 741 1.0
366 748 1.0
366 755 1.0
367 663 1.0
367 670 1.0
367 677 1.0
367 684 1.0
367 691 1.0
367 698 1.0
367 705 1.0
367 712 1.0
367 719 1.0
367 726 1.0
367 733 1.0
367 740 1.0
367 747 1.0
367 754 1.0
367 761 1.0
367 768 1.0
368 676 1.0
368 683 1.0
368 690 1.0
368 697 1.0
368 704 1.0
368 711 1.0
368 718 1.0
368 725 1.0
368 732 1.0
368 739 1.0
368 746 1.0
368 753 1.0
368 760 1.0
368 767 1.0
368 774 1.0
368 781 1.0
369 689 1.0
369 696 1.0
369 703 1.0
369 710 1.0
369 717 1.0
369 724 1.0
369 731 1.0
369 738 1.0
369 745 1.0
369 752 1.0
369 759 1.0
369 766 1.0
369 773 1.0
369 780 1.0
369 787 1.0
369 794 1.0
370 702 1.0
370 709 1.0
370 716 1.0
370 723 1.0
370 730 1.0
370 737 1.0
370 744 1.0
370 751 1.0
370 758 1.0
370 765 1.0
370 772 1.0
370 779 1.0
370 786 1.0
370 793 1.0
370 800 1.0
370 807 1.0
371 715 1.0
371 722 1.0
371 729 1.0
371 736 1.0
371 743 1.0
371 750 1.0
371 757 1.0
371 764 1.0
371 771 1.0
371 778 1.0
371 785 1.0
371 792 1.0
371 799 1.0
371 806 1.0
371 813 1.0
371 820 1.0
372 728 1.0
372 735 1.0
372 742 1.0
372 749 1.0
372 756 1.0
372 763 1.0
372 770 1.0
372 777 1.0
372 784 1.0
372 791 1.0
372 798 1.0
372 805 1.0
372 812 1.0
372 819 1.0
372 826 1.0
372 833 1.0
373 741 1.0
373 748 1.0
373 755 1.0
373 762 1.0
373 769 1.0
373 776 1.0
373 783 1.0
373 790 1.0
373 797 1.0
373 804 1.0
373 811 1.0
373 818 1.0
373 825 1.0
373 832 1.0
373 839 1.0
373 846 1.0
374 754 1.0
374 761 1.0
374 768 1.0
374 775 1.0
374 782 1.0
374 789 1.0
374 796 1.0
374 803 1.0
374 810 1.0
374 817 1.0
374 824 1.0
374 831 1.0
374 838 1.0
374 845 1.0
374 852 1.0
374 859 1.0
375 767 1.0
375 774 1.0
375 781 1.0
375 788 1.0
375 795 1.0
375 802 1.0
375 809 1.0
375 816 1.0
375 823 1.0
375 830 1.0
375 837 1.0
375 844 1.0
375 851 1.0
375 858 1.0
375 865 1.0
375 872 1.0
376 780 1.0
376 787 1.0
376 794 1.0
376 801 1.0
376 808 1.0
376 815 1.0
376 822 1.0
376 829 1.0
376 836 1.0
376 843 1.0
376 850 1.0
376 857 1.0
376 864 1.0
376 871 1.0
376 878 1.0
376 885 1.0
377 793 1.0
377 800 1.0
377 807 1.0
377 814 1.0
377 821 1.0
377 828 1.0
377 835 1.0
377 842 1.0
377 849 1.0
377 856 1.0
377 863 1.0
377 870 1.0
377 877 1.0
377 884 1.0
377 891 1.0
377 898 1.0
378 806 1.0
378 813 1.0
378 820 1.0
378 827 1.0
378 834 1.0
378 841 1.0
378 848 1.0
378 855 1.0
378 862 1.0
378 869 1.0
378 876 1.0
378 883 1.0
378 890 1.0
378 897 1.0
378 904 1.0
378 911 1.0
379 819 1.0
379 826 1.0
379 833 1.0
379 840 1.0
379 847 1.0
379 854 1.0
379 861 1.0
379 868 1.0
379 875 1.0
379 882 1.0
379 889 1.0
379 896 1.0
379 903 1.0
379 910 1.0
379 917 1.0
379 924 1.0
380 832 1.0
380 839 1.0
380 846 1.0
380 853 1.0
380 860 1.0
380 867 1.0
380 874 1.0
380 881 1.0
380 888 1.0
380 895 1.0
380 902 1.0
380 909 1.0
380 916 1.0
380 923 1.0
380 930 1.0
380 937 1.0
381 845 1.0
381 852 1.0
381 859 1.0
381 866 1.0
381 873 1.0
381 880 1.0
381 887 1.0
381 894 1.0
381 901 1.0
381 908 1.0
381 915 1.0
381 922 1.0
381 929 1.0
381 936 1.0
381 943 1.0
381 950 1.0
382 858 1.0
382 865 1.0
382 872 1.0
382 879 1.0
382 886 1.0
382 893 1.0
382 900 1.0
382 907 1.0
382 914 1.0
382 921 1.0
382 928 1.0
382 935 1.0
382 942 1.0
382 949 1.0
382 956 1.0
382 963 1.0
383 871 1.0
383 878 1.0
383 885 1.0
383 892 1.0
383 899 1.0
383 906 1.0
383 913 1.0
383 920 1.0
383 927 1.0
383 934 1.0
383 941 1.0
383 948 1.0
383 955 1.0
383 962 1.0
383 969 1.0
383 976 1.0
384 884 1.0
384 891 1.0
384 898 1.0
384 905 1.0
384 912 1.0
384 919 1.0
384 926 1.0
384 933 1.0
384 940 1.0
384 947 1.0
384 954 1.0
384 961 1.0
384 968 1.0
384 975 1.0
384 982 1.0
384 989 1.0
385 897 1.0
385 904 1.0
385 911 1.0
385 918 1.0
385 925 1.0
385 932 1.0
385 939 1.0
385 946 1.0
385 953 1.0
385 960 1.0
385 967 1.0
385 974 1.0
385 981 1.0
385 988 1.0
385 995 1.0
385 1002 1.0
386 910 1.0
386 917 1.0
386 924 1.0
386 931 1.0
386 938 1.0
386 945 1.0
386 952 1.0
386 959 1.0
386 966 1.0
386 973 1.0
386 980 1.0
386 987 1.0
386 994 1.0
386 1001 1.0
386 1008 1.0
386 1015 1.0
387 923 1.0
387 930 1.0
387 937 1.0
387 944 1.0
387 951 1.0
387 958 1.0
387 965 1.0
387 972 1.0
387 979 1.0
387 986 1.0
387 993 1.0
387 1000 1.0
387 1007 1.0
387 1014 1.0
387 1021 1.0
387 4 1.0
388 936 1.0
388 943 1.0
388 950 1.0
388 957 1.0
388 964 1.0
388 971 1.0
388 978 1.0
388 985 1.0
388 992 1.0
388 999 1.0
388 1006 1.0
388 1013 1.0
388 1020 1.0
388 3 1.0
388 10 1.0
388 17 1.0
389 949 1.0
389 956 1.0
389 963 1.0
389 970 1.0
389 977 1.0
389 984 1.0
389 991 1.0
389 998 1.0
389 1005 1.0
389 1012 1.0
389 1019 1.0
389 2 1.0
389 9 1.0
389 16 1.0
389 23 1.0
389 30 1.0
390 962 1.0
390 969 1.0
390 976 1.0
390 983 1.0
390 990 1.0
390 997 1.0
390 1004 1.0
390 1011 1.0
390 1018 1.0
390 1 1.0
390 8 1.0
390 15 1.0
390 22 1.0
390 29 1.0
390 36 1.0
390 43 1.0
391 975 1.0
391 982 1.0
391 989 1.0
391 996 1.0
391 1003 1.0
391 1010 1.0
391 1017 1.0
391 1024 1.0
391 7 1.0
391 14 1.0
391 21 1.0
391 28 1.0
391 35 1.0
391 42 1.0
391 49 1.0
391 56 1.0
392 988 1.0
392 995 1.0
392 1002 1.0
392 1009 1.0
392 1016 1.0
392 1023 1.0
392 6 1.0
392 13 1.0
392 20 1.0
392 27 1.0
392 34 1.0
392 41 1.0
392 48 1.0
392 55 1.0
392 62 1.0
392 69 1.0
393 1001 1.0
393 1008 1.0
393 1015 1.0
393 1022 1.0
393 5 1.0
393 12 1.0
393 19 1.0
393 26 1.0
393 33 1.0
393 40 1.0
393 47 1.0
393 54 1.0
393 61 1.0
393 68 1.0
393 75 1.0
393 82 1.0
394 1014 1.0
394 1021 1.0
394 4 1.0
394 11 1.0
394 18 1.0
394 25 1.0
394 32 1.0
394 39 1.0
394 46 1.0
394 53 1.0
394 60 1.0
394 67 1.0
394 74 1.0
394 81 1.0
394 88 1.0
394 95 1.0
395 3 1.0
395 10 1.0
395 17 1.0
395 24 1.0
395 31 1.0
395 38 1.0
395 45 1.0
395 52 1.0
395 59 1.0
395 66 1.0
395 73 1.0
395 80 1.0
395 87 1.0
395 94 1.0
395 101 1.0
395 108 1.0
396 16 1.0
396 23 1.0
396 30 1.0
396 37 1.0
396 44 1.0
396 51 1.0
396 58 1.0
396 65 1.0
396 72 1.0
396 79 1.0
396 86 1.0
396 93 1.0
396 100 1.0
396 107 1.0
396 114 1.0
396 121 1.0
397 29 1.0
397 36 1.0
397 43 1.0
397 50 1.0
397 57 1.0
397 64 1.0
397 71 1.0
397 78 1.0
397 85 1.0
397 92 1.0
397 99 1.0
397 106 1.0
397 113 1.0
397 120 1.0
397 127 1.0
397 134 1.0
398 42 1.0
398 49 1.0
398 56 1.0
398 63 1.0
398 70 1.0
398 77 1.0
398 84 1.0
398 91 1.0
398 98 1.0
398 105 1.0
398 112 1.0
398 119 1.0
398 126 1.0
398 133 1.0
398 140 1.0
398 147 1.0
399 55 1.0
399 62 1.0
399 69 1.0
399 76 1.0
399 83 1.0
399 90 1.0
399 97 1.0
399 104 1.0
399 111 1.0
399 118 1.0
399 125 1.0
399 132 1.0
399 139 1.0
399 146 1.0
399 153 1.0
399 160 1.0
400 68 1.0
400 75 1.0
400 82 1.0
400 89 1.0
400 96 1.0
400 103 1.0
400 110 1.0
400 117 1.0
400 124 1.0
400 131 1.0
400 138 1.0
400 145 1.0
400 152 1.0
400 159 1.0
400 166 1.0
400 173 1.0
401 81 1.0
401 88 1.0
401 95 1.0
401 102 1.0
401 109 1.0
401 116 1.0
401 123 1.0
401 130 1.0
401 137 1.0
401 144 1.0
401 151 1.0
401 158 1.0
401 165 1.0
401 172 1.0
401 179 1.0
401 186 1.0
402 94 1.0
402 101 1.0
402 108 1.0
402 115 1.0
402 122 1.0
402 129 1.0
402 136 1.0
402 143 1.0
402 150 1.0
402 157 1.0
402 164 1.0
402 171 1.0
402 178 1.0
402 185 1.0
402 192 1.0
402 199 1.0
403 107 1.0
403 114 1.0
403 121 1.0
403 128 1.0
403 135 1.0
403 142 1.0
403 149 1.0
403 156 1.0
403 163 1.0
403 170 1.0
403 177 1.0
403 184 1.0
403 191 1.0
403 198 1.0
403 205 1.0
403 212 1.0
404 120 1.0
404 127 1.0
404 134 1.0
404 141 1.0
404 148 1.0
404 155 1.0
404 162 1.0
404 169 1.0
404 176 1.0
404 183 1.0
404 190 1.0
404 197 1.0
404 204 1.0
404 211 1.0
404 218 1.0
404 225 1.0
405 133 1.0
405 140 1.0
405 147 1.0
405 154 1.0
405 161 1.0
405 168 1.0
405 175 1.0
405 182 1.0
405 189 1.0
405 196 1.0
405 203 1.0
405 210 1.0
405 217 1.0
405 224 1.0
405 231 1.0
405 238 1.0
406 146 1.0
406 153 1.0
406 160 1.0
406 167 1.0
406 174 1.0
406 181 1.0
406 188 1.0
406 195 1.0
406 202 1.0
406 209 1.0
406 216 1.0
406 223 1.0
406 230 1.0
406 237 1.0
406 244 1.0
406 251 1.0
407 159 1.0
407 166 1.0
407 173 1.0
407 180 1.0
407 187 1.0
407 194 1.0
407 201 1.0
407 208 1.0
407 215 1.0
407 222 1.0
407 229 1.0
407 236 1.0
407 243 1.0
407 250 1.0
407 257 1.0
407 264 1.0
408 172 1.0
408 179 1.0
408 186 1.0
408 193 1.0
408 200 1.0
408 207 1.0
408 214 1.0
408 221 1.0
408 228 1.0
408 235 1.0
408 242 1.0
408 249 1.0
408 256 1.0
408 263 1.0
408 270 1.0
408 277 1.0
409 185 1.0
409 192 1.0
409 199 1.0
409 206 1.0
409 213 1.0
409 220 1.0
409 227 1.0
409 234 1.0
409 241 1.0
409 248 1.0
409 255 1.0
409 262 1.0
409 269 1.0
409 276 1.0
409 283 1.0
409 290 1.0
410 198 1.0
410 205 1.0
410 212 1.0
410 219 1.0
410 226 1.0
410 233 1.0
410 240 1.0
410 247 1.0
410 254 1.0
410 261 1.0
410 268 1.0
410 275 1.0
410 282 1.0
410 289 1.0
410 296 1.0
410 303 1.0
411 211 1.0
411 218 1.0
411 225 1.0
411 232 1.0
411 239 1.0
411 246 1.0
411 253 1.0
411 260 1.0
411 267 1.0
411 274 1.0
411 281 1.0
411 288 1.0
411 295 1.0
411 302 1.0
411 309 1.0
411 316 1.0
412 224 1.0
412 231 1.0
412 238 1.0
412 245 1.0
412 252 1.0
412 259 1.0
412 266 1.0
412 273 1.0
412 280 1.0
412 287 1.0
412 294 1.0
412 301 1.0
412 308 1.0
412 315 1.0
412 322 1.0
412 329 1.0
413 237 1.0
413 244 1.0
413 251 1.0
413 258 1.0
413 265 1.0
413 272 1.0
413 279 1.0
413 286 1.0
413 293 1.0
413 300 1.0
413 307 1.0
413 314 1.0
413 321 1.0
413 328 1.0
413 335 1.0
413 342 1.0
414 250 1.0
414 257 1.0
414 264 1.0
414 271 1.0
414 278 1.0
414 285 1.0
414 292 1.0
414 299 1.0
414 306 1.0
414 313 1.0
414 320 1.0
414 327 1.0
414 334 1.0
414 341 1.0
414 348 1.0
414 355 1.0
415 263 1.0
415 270 1.0
415 277 1.0
415 284 1.0
415 291 1.0
415 298 1.0
415 305 1.0
415 312 1.0
415 319 1.0
415 326 1.0
415 333 1.0
415 340 1.0
415 347 1.0
415 354 1.0
415 361 1.0
415 368 1.0
416 276 1.0
416 283 1.0
416 290 1.0
416 297 1.0
416 304 1.0
416 311 1.0
416 318 1.0
416 325 1.0
416 332 1.0
416 339 1.0
416 346 1.0
416 353 1.0
416 360 1.0
416 367 1.0
416 374 1.0
416 381 1.0
417 289 1.0
417 296 1.0
417 303 1.0
417 310 1.0
417 317 1.0
417 324 1.0
417 331 1.0
417 338 1.0
417 345 1.0
417 352 1.0
417 359 1.0
417 366 1.0
417 373 1.0
417 380 1.0
417 387 1.0
417 394 1.0
418 302 1.0
418 309 1.0
418 316 1.0
418 323 1.0
418 330 1.0
418 337 1.0
418 344 1.0
418 351 1.0
418 358 1.0
418 365 1.0
418 372 1.0
418 379 1.0
418 386 1.0
418 393 1.0
418 400 1.0
418 407 1.0
419 315 1.0
419 322 1.0
419 329 1.0
419 336 1.0
419 343 1.0
419 350 1.0
419 357 1.0
419 364 1.0
419 371 1.0
419 378 1.0
419 385 1.0
419 392 1.0
419 399 1.0
419 406 1.0
419 413 1.0
419 420 1.0
420 328 1.0
420 335 1.0
420 342 1.0
420 349 1.0
420 356 1.0
420 363 1.0
420 370 1.0
420 377 1.0
420 384 1.0
420 391 1.0
420 398 1.0
420 405 1.0
420 412 1.0
420 419 1.0
420 426 1.0
420 433 1.0
421 341 1.0
421 348 1.0
421 355 1.0
421 362 1.0
421 369 1.0
421 376 1.0
421 383 1.0
421 390 1.0
421 397 1.0
421 404 1.0
421 411 1.0
421 418 1.0
421 425 1.0
421 432 1.0
421 439 1.0
421 446 1.0
422 354 1.0
422 361 1.0
422 368 1.0
422 375 1.0
422 382 1.0
422 389 1.0
422 396 1.0
422 403 1.0
422 410 1.0
422 417 1.0
422 424 1.0
422 431 1.0
422 438 1.0
422 445 1.0
422 452 1.0
422 459 1.0
423 367 1.0
423 374 1.0
423 381 1.0
423 388 1.0
423 395 1.0
423 402 1.0
423 409 1.0
423 416 1.0
423 423 1.0
423 430 1.0
423 437 1.0
423 444 1.0
423 451 1.0
423 458 1.0
423 465 1.0
423 472 1.0
424 380 1.0
424 387 1.0
424 394 1.0
424 401 1.0
424 408 1.0
424 415 1.0
424 422 1.0
424 429 1.0
424 436 1.0
424 443 1.0
424 450 1.0
424 457 1.0
424 464 1.0
424 471 1.0
424 478 1.0
424 485 1.0
425 393 1.0
425 400 1.0
425 407 1.0
425 414 1.0
425 421 1.0
425 428 1.0
425 435 1.0
425 442 1.0
425 449 1.0
425 456 1.0
425 463 1.0
425 470 1.0
425 477 1.0
425 484 1.0
425 491 1.0
425 498 1.0
426 406 1.0
426 413 1.0
426 420 1.0
426 427 1.0
426 434 1.0
426 441 1.0
426 448 1.0
426 455 1.0
426 462 1.0
426 469 1.0
426 476 1.0
426 483 1.0
426 490 1.0
426 497 1.0
426 504 1.0
426 511 1.0
427 419 1.0
427 426 1.0
427 433 1.0
427 440 1.0
427 447 1.0
427 454 1.0
427 461 1.0
427 468 1.0
427 475 1.0
427 482 1.0
427 489 1.0
427 496 1.0
427 503 1.0
427 510 1.0
427 517 1.0
427 524 1.0
428 432 1.0
428 439 1.0
428 446 1.0
428 453 1.0
428 460 1.0
428 467 1.0
428 474 1.0
428 481 1.0
428 488 1.0
428 495 1.0
428 502 1.0
428 509 1.0
428 516 1.0
428 523 1.0
428 530 1.0
428 537 1.0
429 445 1.0
429 452 1.0
429 459 1.0
429 466 1.0
429 473 1.0
429 480 1.0
429 487 1.0
429 494 1.0
429 501 1.0
429 508 1.0
429 515 1.0
429 522 1.0
429 529 1.0
429 536 1.0
429 543 1.0
429 550 1.0
430 458 1.0
430 465 1.0
430 472 1.0
430 479 1.0
430 486 1.0
430 493 1.0
430 500 1.0
430 507 1.0
430 514 1.0
430 521 1.0
430 528 1.0
430 535 1.0
430 542 1.0
430 549 1.0
430 556 1.0
430 563 1.0
431 471 1.0
431 478 1.0
431 485 1.0
431 492 1.0
431 499 1.0
431 506 1.0
431 513 1.0
431 520 1.0
431 527 1.0
431 534 1.0
431 541 1.0
431 548 1.0
431 555 1.0
431 562 1.0
431 569 1.0
431 576 1.0
432 484 1.0
432 491 1.0
432 498 1.0
432 505 1.0
432 512 1.0
432 519 1.0
432 526 1.0
432 533 1.0
432 540 1.0
432 547 1.0
432 554 1.0
432 561 1.0
432 568 1.0
432 575 1.0
432 582 1.0
432 589 1.0
433 497 1.0
433 504 1.0
433 511 1.0
433 518 1.0
433 525 1.0
433 532 1.0
433 539 1.0
433 546 1.0
433 553 1.0
433 560 1.0
433 567 1.0
433 574 1.0
433 581 1.0
433 588 1.0
433 595 1.0
433 602 1.0
434 510 1.0
434 517 1.0
434 524 1.0
434 531 1.0
434 538 1.0
434 545 1.0
434 552 1.0
434 559 1.0
434 566 1.0
434 573 1.0
434 580 1.0
434 587 1.0
434 594 1.0
434 601 1.0
434 608 1.0
434 615 1.0
435 523 1.0
435 530 1.0
435 537 1.0
435 544 1.0
435 551 1.0
435 558 1.0
435 565 1.0
435 572 1.0
435 579 1.0
435 586 1.0
435 593 1.0
435 600 1.0
435 607 1.0
435 614 1.0
435 621 1.0
435 628 1.0
436 536 1.0
436 543 1.0
436 550 1.0
436 557 1.0
436 564 1.0
436 571 1.0
436 578 1.0
436 585 1.0
436 592 1.0
436 599 1.0
436 606 1.0
436 613 1.0
436 620 1.0
436 627 1.0
436 634 1.0
436 641 1.0
437 549 1.0
437 556 1.0
437 563 1.0
437 570 1.0
437 577 1.0
437 584 1.0
437 591 1.0
437 598 1.0
437 605 1.0
437 612 1.0
437 619 1.0
437 626 1.0
437 633 1.0
437 640 1.0
437 647 1.0
437 654 1.0
438 562 1.0
438 569 1.0
438 576 1.0
438 583 1.0
438 590 1.0
438 597 1.0
438 604 1.0
438 611 1.0
438 618 1.0
438 625 1.0
438 632 1.0
438 639 1.0
438 646 1.0
438 653 1.0
438 660 1.0
438 667 1.0
439 575 1.0
439 582 1.0
439 589 1.0
439 596 1.0
439 603 1.0
439 610 1.0
439 617 1.0
439 624 1.0
439 631 1.0
439 638 1.0
439 645 1.0
439 652 1.0
439 659 1.0
439 666 1.0
439 673 1.0
439 680 1.0
440 588 1.0
440 595 1.0
440 602 1.0
440 609 1.0
440 616 1.0
440 623 1.0
440 630 1.0
440 637 1.0
440 644 1.0
440 651 1.0
440 658 1.0
440 665 1.0
440 672 1.0
440 679 1.0
440 686 1.0
440 693 1.0
441 601 1.0
441 608 1.0
441 615 1.0
441 622 1.0
441 629 1.0
441 636 1.0
441 643 1.0
441 650 1.0
441 657 1.0
441 664 1.0
441 671 1.0
441 678 1.0
441 685 1.0
441 692 1.0
441 699 1.0
441 706 1.0
442 614 1.0
442 621 1.0
442 628 1.0
442 635 1.0
442 642 1.0
442 649 1.0
442 656 1.0
442 663 1.0
442 670 1.0
442 677 1.0
442 684 1.0
442 691 1.0
442 698 1.0
442 705 1.0
442 712 1.0
442 719 1.0
443 627 1.0
443 634 1.0
443 641 1.0
443 648 1.0
443 655 1.0
443 662 1.0
443 669 1.0
443 676 1.0
443 683 1.0
443 690 1.0
443 697 1.0
443 704 1.0
443 711 1.0
443 718 1.0
443 725 1.0
443 732 1.0
444 640 1.0
444 647 1.0
444 654 1.0
444 661 1.0
444 668 1.0
444 675 1.0
444 682 1.0
444 689 1.0
444 696 1.0
444 703 1.0
444 710 1.0
444 717 1.0
444 724 1.0
444 731 1.0
444 738 1.0
444 745 1.0
445 653 1.0
445 660 1.0
445 667 1.0
445 674 1.0
445 681 1.0
445 688 1.0
445 695 1.0
445 702 1.0
445 709 1.0
445 716 1.0
445 723 1.0
445 730 1.0
445 737 1.0
445 744 1.0
445 751 1.0
445 758 1.0
446 666 1.0
446 673 1.0
446 680 1.0
446 687 1.0
446 694 1.0
446 701 1.0
446 708 1.0
446 715 1.0
446 722 1.0
446 729 1.0
446 736 1.0
446 743 1.0
446 750 1.0
446 757 1.0
446 764 1.0
446 771 1.0
447 679 1.0
447 686 1.0
447 693 1.0
447 700 1.0
447 707 1.0
447 714 1.0
447 721 1.0
447 728 1.0
447 735 1.0
447 742 1.0
447 749 1.0
447 756 1.0
447 763 1.0
447 770 1.0
447 777 1.0
447 784 1.0
448 692 1.0
448 699 1.0
448 706 1.0
448 713 1.0
448 720 1.0
448 727 1.0
448 734 1.0
448 741 1.0
448 748 1.0
448 755 1.0
448 762 1.0
448 769 1.0
448 776 1.0
448 783 1.0
448 790 1.0
448 797 1.0
449 705 1.0
449 712 1.0
449 719 1.0
449 726 1.0
449 733 1.0
449 740 1.0
449 747 1.0
449 754 1.0
449 761 1.0
449 768 1.0
449 775 1.0
449 782 1.0
449 789 1.0
449 796 1.0
449 803 1.0
449 810 1.0
450 718 1.0
450 725 1.0
450 732 1.0
450 739 1.0
450 746 1.0
450 753 1.0
450 760 1.0
450 767 1.0
450 774 1.0
450 781 1.0
450 788 1.0
450 795 1.0
450 802 1.0
450 809 1.0
450 816 1.0
450 823 1.0
451 731 1.0
451 738 1.0
451 745 1.0
451 752 1.0
451 759 1.0
451 766 1.0
451 773 1.0
451 780 1.0
451 787 1.0
451 794 1.0
451 801 1.0
451 808 1.0
451 815 1.0
451 822 1.0
451 829 1.0
451 836 1.0
452 744 1.0
452 751 1.0
452 758 1.0
452 765 1.0
452 772 1.0
452 779 1.0
452 786 1.0
452 793 1.0
452 800 1.0
452 807 1.0
452 814 1.0
452 821 1.0
452 828 1.0
452 835 1.0
452 842 1.0
452 849 1.0
453 757 1.0
453 764 1.0
453 771 1.0
453 778 1.0
453 785 1.0
453 792 1.0
453 799 1.0
453 806 1.0
453 813 1.0
453 820 1.0
453 827 1.0
453 834 1.0
453 841 1.0
453 848 1.0
453 855 1.0
453 862 1.0
454 770 1.0
454 777 1.0
454 784 1.0
454 791 1.0
454 798 1.0
454 805 1.0
454 812 1.0
454 819 1.0
454 826 1.0
454 833 1.0
454 840 1.0
454 847 1.0
454 854 1.0
454 861 1.0
454 868 1.0
454 875 1.0
455 783 1.0
455 790 1.0
455 797 1.0
455 804 1.0
455 811 1.0
455 818 1.0
455 825 1.0
455 832 1.0
455 839 1.0
455 846 1.0
455 853 1.0
455 860 1.0
455 867 1.0
455 874 1.0
455 881 1.0
455 888 1.0
456 796 1.0
456 803 1.0
456 810 1.0
456 817 1.0
456 824 1.0
456 831 1.0
456 838 1.0
456 845 1.0
456 852 1.0
456 859 1.0
456 866 1.0
456 873 1.0
456 880 1.0
456 887 1.0
456 894 1.0
456 901 1.0
457 809 1.0
457 816 1.0
457 823 1.0
457 830 1.0
457 837 1.0
457 844 1.0
457 851 1.0
457 858 1.0
457 865 1.0
457 872 1.0
457 879 1.0
457 886 1.0
457 893 1.0
457 900 1.0
457 907 1.0
457 914 1.0
458 822 1.0
458 829 1.0
458 836 1.0
458 843 1.0
458 850 1.0
458 857 1.0
458 864 1.0
458 871 1.0
458 878 1.0
458 885 1.0
458 892 1.0
458 899 1.0
458 906 1.0
458 913 1.0
458 920 1.0
458 927 1.0
459 835 1.0
459 842 1.0
459 849 1.0
459 856 1.0
459 863 1.0
459 870 1.0
459 877 1.0
459 884 1.0
459 891 1.0
459 898 1.0
459 905 1.0
459 912 1.0
459 919 1.0
459 926 1.0
459 933 1.0
459 940 1.0
460 848 1.0
460 855 1.0
460 862 1.0
460 869 1.0
460 876 1.0
460 883 1.0
460 890 1.0
460 897 1.0
460 904 1.0
460 911 1.0
460 918 1.0
460 925 1.0
460 932 1.0
460 939 1.0
460 946 1.0
460 953 1.0
461 861 1.0
461 868 1.0
461 875 1.0
461 882 1.0
461 889 1.0
461 896 1.0
461 903 1.0
461 910 1.0
461 917 1.0
461 924 1.0
461 931 1.0
461 938 1.0
461 945 1.0
461 952 1.0
461 959 1.0
461 966 1.0
462 874 1.0
462 881 1.0
462 888 1.0
462 895 1.0
462 902 1.0
462 909 1.0
462 916 1.0
462 923 1.0
462 930 1.0
462 937 1.0
462 944 1.0
462 951 1.0
462 958 1.0
462 965 1.0
462 972 1.0
462 979 1.0
463 887 1.0
463 894 1.0
463 901 1.0
463 908 1.0
463 915 1.0
463 922 1.0
463 929 1.0
463 936 1.0
463 943 1.0
463 950 1.0
463 957 1.0
463 964 1.0
463 971 1.0
463 978 1.0
463 985 1.0
463 992 1.0
464 900 1.0
464 907 1.0
464 914 1.0
464 921 1.0
464 928 1.0
464 935 1.0
464 942 1.0
464 949 1.0
464 956 1.0
464 963 1.0
464 970 1.0
464 977 1.0
464 984 1.0
464 991 1.0
464 998 1.0
464 1005 1.0
465 913 1.0
465 920 1.0
465 927 1.0
465 934 1.0
465 941 1.0
465 948 1.0
465 955 1.0
465 962 1.0
465 969 1.0
465 976 1.0
465 983 1.0
465 990 1.0
465 997 1.0
465 1004 1.0
465 1011 1.0
465 1018 1.0
466 926 1.0
466 933 1.0
466 940 1.0
466 947 1.0
466 954 1.0
466 961 1.0
466 968 1.0
466 975 1.0
466 982 1.0
466 989 1.0
466 996 1.0
466 1003 1.0
466 1010 1.0
466 1017 1.0
466 1024 1.0
466 7 1.0
467 939 1.0
467 946 1.0
467 953 1.0
467 960 1.0
467 967 1.0
467 974 1.0
467 981 1.0
467 988 1.0
467 995 1.0
467 1002 1.0
467 1009 1.0
467 1016 1.0
467 1023 1.0
467 6 1.0
467 13 1.0
467 20 1.0
468 952 1.0
468 959 1.0
468 966 1.0
468 973 1.0
468 980 1.0
468 987 1.0
468 994 1.0
468 1001 1.0
468 1008 1.0
468 1015 1.0
468 1022 1.0
468 5 1.0
468 12 1.0
468 19 1.0
468 26 1.0
468 33 1.0
469 965 1.0
469 972 1.0
469 979 1.0
469 986 1.0
469 993 1.0
469 1000 1.0
469 1007 1.0
469 1014 1.0
469 1021 1.0
469 4 1.0
469 11 1.0
469 18 1.0
469 25 1.0
469 32 1.0
469 39 1.0
469 46 1.0
470 978 1.0
470 985 1.0
470 992 1.0
470 999 1.0
470 1006 1.0
470 1013 1.0
470 1020 1.0
470 3 1.0
470 10 1.0
470 17 1.0
470 24 1.0
470 31 1.0
470 38 1.0
470 45 1.0
470 52 1.0
470 59 1.0
471 991 1.0
471 998 1.0
471 1005 1.0
471 1012 1.0
471 1019 1.0
471 2 1.0
471 9 1.0
471 16 1.0
471 23 1.0
471 30 1.0
471 37 1.0
471 44 1.0
471 51 1.0
471 58 1.0
471 65 1.0
471 72 1.0
472 1004 1.0
472 1011 1.0
472 1018 1.0
472 1 1.0
472 8 1.0
472 15 1.0
472 22 1.0
472 29 1.0
472 36 1.0
472 43 1.0
472 50 1.0
472 57 1.0
472 64 1.0
472 71 1.0
472 78 1.0
472 85 1.0
473 1017 1.0
473 1024 1.0
473 7 1.0
473 14 1.0
473 21 1.0
473 28 1.0
473 35 1.0
473 42 1.0
473 49 1.0
473 56 1.0
473 63 1.0
473 70 1.0
473 77 1.0
473 84 1.0
473 91 1.0
473 98 1.0
474 6 1.0
474 13 1.0
474 20 1.0
474 27 1.0
474 34 1.0
474 41 1.0
474 48 1.0
474 55 1.0
474 62 1.0
474 69 1.0
474 76 1.0
474 83 1.0
474 90 1.0
474 97 1.0
474 104 1.0
474 111 1.0
475 19 1.0
475 26 1.0
475 33 1.0
475 40 1.0
475 47 1.0
475 54 1.0
475 61 1.0
475 68 1.0
475 75 1.0
475 82 1.0
475 89 1.0
475 96 1.0
475 103 1.0
475 110 1.0
475 117 1.0
475 124 1.0
476 32 1.0
476 39 1.0
476 46 1.0
476 53 1.0
476 60 1.0
476 67 1.0
476 74 1.0
476 81 1.0
476 88 1.0
476 95 1.0
476 102 1.0
476 109 1.0
476 116 1.0
476 123 1.0
476 130 1.0
476 137 1.0
477 45 1.0
477 52 1.0
477 59 1.0
477 66 1.0
477 73 1.0
477 80 1.0
477 87 1.0
477 94 1.0
477 101 1.0
477 108 1.0
477 115 1.0
477 122 1.0
477 129 1.0
477 136 1.0
477 143 1.0
477 150 1.0
478 58 1.0
478 65 1.0
478 72 1.0
478 79 1.0
478 86 1.0
478 93 1.0
478 100 1.0
478 107 1.0
478 114 1.0
478 121 1.0
478 128 1.0
478 135 1.0
478 142 1.0
478 149 1.0
478 156 1.0
478 163 1.0
479 71 1.0
479 78 1.0
479 85 1.0
479 92 1.0
479 99 1.0
479 106 1.0
479 113 1.0
479 120 1.0
479 127 1.0
479 134 1.0
479 141 1.0
479 148 1.0
479 155 1.0
479 162 1.0
479 169 1.0
479 176 1.0
480 84 1.0
480 91 1.0
480 98 1.0
480 105 1.0
480 112 1.0
480 119 1.0
480 126 1.0
480 133 1.0
480 140 1.0
480 147 1.0
480 154 1.0
480 161 1.0
480 168 1.0
480 175 1.0
480 182 1.0
480 189 1.0
481 97 1.0
481 104 1.0
481 111 1.0
481 118 1.0
481 125 1.0
481 132 1.0
481 139 1.0
481 146 1.0
481 153 1.0
481 160 1.0
481 167 1.0
481 174 1.0
481 181 1.0
481 188 1.0
481 195 1.0
481 202 1.0
482 110 1.0
482 117 1.0
482 124 1.0
482 131 1.0
482 138 1.0
482 145 1.0
482 152 1.0
482 159 1.0
482 166 1.0
482 173 1.0
482 180 1.0
482 187 1.0
482 194 1.0
482 201 1.0
482 208 1.0
482 215 1.0
483 123 1.0
483 130 1.0
483 137 1.0
483 144 1.0
483 151 1.0
483 158 1.0
483 165 1.0
483 172 1.0
483 179 1.0
483 186 1.0
483 193 1.0
483 200 1.0
483 207 1.0
483 214 1.0
483 221 1.0
483 228 1.0
484 136 1.0
484 143 1.0
484 150 1.0
484 157 1.0
484 164 1.0
484 171 1.0
484 178 1.0
484 185 1.0
484 192 1.0
484 199 1.0
484 206 1.0
484 213 1.0
484 220 1.0
484 227 1.0
484 234 1.0
484 241 1.0
485 149 1.0
485 156 1.0
485 163 1.0
485 170 1.0
485 177 1.0
485 184 1.0
485 191 1.0
485 198 1.0
485 205 1.0
485 212 1.0
485 219 1.0
485 226 1.0
485 233 1.0
485 240 1.0
485 247 1.0
485 254 1.0
486 162 1.0
486 169 1.0
486 176 1.0
486 183 1.0
486 190 1.0
486 197 1.0
486 204 1.0
486 211 1.0
486 218 1.0
486 225 1.0
486 232 1.0
486 239 1.0
486 246 1.0
486 253 1.0
486 260 1.0
486 267 1.0
487 175 1.0
487 182 1.0
487 189 1.0
487 196 1.0
487 203 1.0
487 210 1.0
487 217 1.0
487 224 1.0
487 231 1.0
487 238 1.0
487 245 1.0
487 252 1.0
487 259 1.0
487 266 1.0
487 273 1.0
487 280 1.0
488 188 1.0
488 195 1.0
488 202 1.0
488 209 1.0
488 216 1.0
488 223 1.0
488 230 1.0
488 237 1.0
488 244 1.0
488 251 1.0
488 258 1.0
488 265 1.0
488 272 1.0
488 279 1.0
488 286 1.0
488 293 1.0
489 201 1.0
489 208 1.0
489 215 1.0
489 222 1.0
489 229 1.0
489 236 1.0
489 243 1.0
489 250 1.0
489 257 1.0
489 264 1.0
489 271 1.0
489 278 1.0
489 285 1.0
489 292 1.0
489 299 1.0
489 306 1.0
490 214 1.0
490 221 1.0
490 228 1.0
490 235 1.0
490 242 1.0
490 249 1.0
490 256 1.0
490 263 1.0
490 270 1.0
490 277 1.0
490 284 1.0
490 291 1.0
490 298 1.0
490 305 1.0
490 312 1.0
490 319 1.0
491 227 1.0
491 234 1.0
491 241 1.0
491 248 1.0
491 255 1.0
491 262 1.0
491 269 1.0
491 276 1.0
491 283 1.0
491 290 1.0
491 297 1.0
491 304 1.0
491 311 1.0
491 318 1.0
491 325 1.0
491 332 1.0
492 240 1.0
492 247 1.0
492 254 1.0
492 261 1.0
492 268 1.0
492 275 1.0
492 282 1.0
492 289 1.0
492 296 1.0
492 303 1.0
492 310 1.0
492 317 1.0
492 324 1.0
492 331 1.0
492 338 1.0
492 345 1.0
493 253 1.0
493 260 1.0
493 267 1.0
493 274 1.0
493 281 1.0
493 288 1.0
493 295 1.0
493 302 1.0
493 309 1.0
493 316 1.0
493 323 1.0
493 330 1.0
493 337 1.0
493 344 1.0
493 351 1.0
493 358 1.0
494 266 1.0
494 273 1.0
494 280 1.0
494 287 1.0
494 294 1.0
494 301 1.0
494 308 1.0
494 315 1.0
494 322 1.0
494 329 1.0
494 336 1.0
494 343 1.0
494 350 1.0
494 357 1.0
494 364 1.0
494 371 1.0
495 279 1.0
495 286 1.0
495 293 1.0
495 300 1.0
495 307 1.0
495 314 1.0
495 321 1.0
495 328 1.0
495 335 1.0
495 342 1.0
495 349 1.0
495 356 1.0
495 363 1.0
495 370 1.0
495 377 1.0
495 384 1.0
496 292 1.0
496 299 1.0
496 306 1.0
496 313 1.0
496 320 1.0
496 327 1.0
496 334 1.0
496 341 1.0
496 348 1.0
496 355 1.0
496 362 1.0
496 369 1.0
496 376 1.0
496 383 1.0
496 390 1.0
496 397 1.0
497 305 1.0
497 312 1.0
497 319 1.0
497 326 1.0
497 333 1.0
497 340 1.0
497 347 1.0
497 354 1.0
497 361 1.0
497 368 1.0
497 375 1.0
497 382 1.0
497 389 1.0
497 396 1.0
497 403 1.0
497 410 1.0
498 318 1.0
498 325 1.0
498 332 1.0
498 339 1.0
498 346 1.0
498 353 1.0
498 360 1.0
498 367 1.0
498 374 1.0
498 381 1.0
498 388 1.0
498 395 1.0
498 402 1.0
498 409 1.0
498 416 1.0
498 423 1.0
499 331 1.0
499 338 1.0
499 345 1.0
499 352 1.0
499 359 1.0
499 366 1.0
499 373 1.0
499 380 1.0
499 387 1.0
499 394 1.0
499 401 1.0
499 408 1.0
499 415 1.0
499 422 1.0
499 429 1.0
499 436 1.0
500 344 1.0
500 351 1.0
500 358 1.0
500 365 1.0
500 372 1.0
500 379 1.0
500 386 1.0
500 393 1.0
500 400 1.0
500 407 1.0
500 414 1.0
500 421 1.0
500 428 1.0
500 435 1.0
500 442 1.0
500 449 1.0
501 357 1.0
501 364 1.0
501 371 1.0
501 378 1.0
501 385 1.0
501 392 1.0
501 399 1.0
501 406 1.0
501 413 1.0
501 420 1.0
501 427 1.0
501 434 1.0
501 441 1.0
501 448 1.0
501 455 1.0
501 462 1.0
502 370 1.0
502 377 1.0
502 384 1.0
502 391 1.0
502 398 1.0
502 405 1.0
502 412 1.0
502 419 1.0
502 426 1.0
502 433 1.0
502 440 1.0
502 447 1.0
502 454 1.0
502 461 1.0
502 468 1.0
502 475 1.0
503 383 1.0
503 390 1.0
503 397 1.0
503 404 1.0
503 411 1.0
503 418 1.0
503 425 1.0
503 432 1.0
503 439 1.0
503 446 1.0
503 453 1.0
503 460 1.0
503 467 1.0
503 474 1.0
503 481 1.0
503 488 1.0
504 396 1.0
504 403 1.0
504 410 1.0
504 417 1.0
504 424 1.0
504 431 1.0
504 438 1.0
504 445 1.0
504 452 1.0
504 459 1.0
504 466 1.0
504 473 1.0
504 480 1.0
504 487 1.0
504 494 1.0
504 501 1.0
505 409 1.0
505 416 1.0
505 423 1.0
505 430 1.0
505 437 1.0
505 444 1.0
505 451 1.0
505 458 1.0
505 465 1.0
505 472 1.0
505 479 1.0
505 486 1.0
505 493 1.0
505 500 1.0
505 507 1.0
505 514 1.0
506 422 1.0
506 429 1.0
506 436 1.0
506 443 1.0
506 450 1.0
506 457 1.0
506 464 1.0
506 471 1.0
506 478 1.0
506 485 1.0
506 492 1.0
506 499 1.0
506 506 1.0
506 513 1.0
506 520 1.0
506 527 1.0
507 435 1.0
507 442 1.0
507 449 1.0
507 456 1.0
507 463 1.0
507 470 1.0
507 477 1.0
507 484 1.0
507 491 1.0
507 498 1.0
507 505 1.0
507 512 1.0
507 519 1.0
507 526 1.0
507 533 1.0
507 540 1.0
508 448 1.0
508 455 1.0
508 462 1.0
508 469 1.0
508 476 1.0
508 483 1.0
508 490 1.0
508 497 1.0
508 504 1.0
508 511 1.0
508 518 1.0
508 525 1.0
508 532 1.0
508 539 1.0
508 546 1.0
508 553 1.0
509 461 1.0
509 468 1.0
509 475 1.0
509 482 1.0
509 489 1.0
509 496 1.0
509 503 1.0
509 510 1.0
509 517 1.0
509 524 1.0
509 531 1.0
509 538 1.0
509 545 1.0
509 552 1.0
509 559 1.0
509 566 1.0
510 474 1.0
510 481 1.0
510 488 1.0
510 495 1.0
510 502 1.0
510 509 1.0
510 516 1.0
510 523 1.0
510 530 1.0
510 537 1.0
510 544 1.0
510 551 1.0
510 558 1.0
510 565 1.0
510 572 1.0
510 579 1.0
511 487 1.0
511 494 1.0
511 501 1.0
511 508 1.0
511 515 1.0
511 522 1.0
511 529 1.0
511 536 1.0
511 543 1.0
511 550 1.0
511 557 1.0
511 564 1.0
511 571 1.0
511 578 1.0
511 585 1.0
511 592 1.0
512 500 1.0
512 507 1.0
512 514 1.0
512 521 1.0
512 528 1.0
512 535 1.0
512 542 1.0
512 549 1.0
512 556 1.0
512 563 1.0
512 570 1.0
512 577 1.0
512 584 1.0
512 591 1.0
512 598 1.0
512 605 1.0
513 513 1.0
513 520 1.0
513 527 1.0
513 534 1.0
513 541 1.0
513 548 1.0
513 555 1.0
513 562 1.0
513 569 1.0
513 576 1.0
513 583 1.0
513 590 1.0
513 597 1.0
513 604 1.0
513 611 1.0
513 618 1.0
514 526 1.0
514 533 1.0
514 540 1.0
514 547 1.0
514 554 1.0
514 561 1.0
514 568 1.0
514 575 1.0
514 582 1.0
514 589 1.0
514 596 1.0
514 603 1.0
514 610 1.0
514 617 1.0
514 624 1.0
514 631 1.0
515 539 1.0
515 546 1.0
515 553 1.0
515 560 1.0
515 567 1.0
515 574 1.0
515 581 1.0
515 588 1.0
515 595 1.0
515 602 1.0
515 609 1.0
515 616 1.0
515 623 1.0
515 630 1.0
515 637 1.0
515 644 1.0
516 552 1.0
516 559 1.0
516 566 1.0
516 573 1.0
516 580 1.0
516 587 1.0
516 594 1.0
516 601 1.0
516 608 1.0
516 615 1.0
516 622 1.0
516 629 1.0
516 636 1.0
516 643 1.0
516 650 1.0
516 657 1.0
517 565 1.0
517 572 1.0
517 579 1.0
517 586 1.0
517 593 1.0
517 600 1.0
517 607 1.0
517 614 1.0
517 621 1.0
517 628 1.0
517 635 1.0
517 642 1.0
517 649 1.0
517 656 1.0
517 663 1.0
517 670 1.0
518 578 1.0
518 585 1.0
518 592 1.0
518 599 1.0
518 606 1.0
518 613 1.0
518 620 1.0
518 627 1.0
518 634 1.0
518 641 1.0
518 648 1.0
518 655 1.0
518 662 1.0
518 669 1.0
518 676 1.0
518 683 1.0
519 591 1.0
519 598 1.0
519 605 1.0
519 612 1.0
519 619 1.0
519 626 1.0
519 633 1.0
519 640 1.0
519 647 1.0
519 654 1.0
519 661 1.0
519 668 1.0
519 675 1.0
519 682 1.0
519 689 1.0
519 696 1.0
520 604 1.0
520 611 1.0
520 618 1.0
520 625 1.0
520 632 1.0
520 639 1.0
520 646 1.0
520 653 1.0
520 660 1.0
520 667 1.0
520 674 1.0
520 681 1.0
520 688 1.0
520 695 1.0
520 702 1.0
520 709 1.0
521 617 1.0
521 624 1.0
521 631 1.0
521 638 1.0
521 645 1.0
521 652 1.0
521 659 1.0
521 666 1.0
521 673 1.0
521 680 1.0
521 687 1.0
521 694 1.0
521 701 1.0
521 708 1.0
521 715 1.0
521 722 1.0
522 630 1.0
522 637 1.0
522 644 1.0
522 651 1.0
522 658 1.0
522 665 1.0
522 672 1.0
522 679 1.0
522 686 1.0
522 693 1.0
522 700 1.0
522 707 1.0
522 714 1.0
522 721 1.0
522 728 1.0
522 735 1.0
523 643 1.0
523 650 1.0
523 657 1.0
523 664 1.0
523 671 1.0
523 678 1.0
523 685 1.0
523 692 1.0
523 699 1.0
523 706 1.0
523 713 1.0
523 720 1.0
523 727 1.0
523 734 1.0
523 741 1.0
523 748 1.0
524 656 1.0
524 663 1.0
524 670 1.0
524 677 1.0
524 684 1.0
524 691 1.0
524 698 1.0
524 705 1.0
524 712 1.0
524 719 1.0
524 726 1.0
524 733 1.0
524 740 1.0
524 747 1.0
524 754 1.0
524 761 1.0
525 669 1.0
525 676 1.0
525 683 1.0
525 690 1.0
525 697 1.0
525 704 1.0
525 711 1.0
525 718 1.0
525 725 1.0
525 732 1.0
525 739 1.0
525 746 1.0
525 753 1.0
525 760 1.0
525 767 1.0
525 774 1.0
526 682 1.0
526 689 1.0
526 696 1.0
526 703 1.0
526 710 1.0
526 717 1.0
526 724 1.0
526 731 1.0
526 738 1.0
526 745 1.0
526 752 1.0
526 759 1.0
526 766 1.0
526 773 1.0
526 780 1.0
526 787 1.0
527 695 1.0
527 702 1.0
527 709 1.0
527 716 1.0
527 723 1.0
527 730 1.0
527 737 1.0
527 744 1.0
527 751 1.0
527 758 1.0
527 765 1.0
527 772 1.0
527 779 1.0
527 786 1.0
527 793 1.0
527 800 1.0
528 708 1.0
528 715 1.0
528 722 1.0
528 729 1.0
528 736 1.0
528 743 1.0
528 750 1.0
528 757 1.0
528 764 1.0
528 771 1.0
528 778 1.0
528 785 1.0
528 792 1.0
528 799 1.0
528 806 1.0
528 813 1.0
529 721 1.0
529 728 1.0
529 735 1.0
529 742 1.0
529 749 1.0
529 756 1.0
529 763 1.0
529 770 1.0
529 777 1.0
529 784 1.0
529 791 1.0
529 798 1.0
529 805 1.0
529 812 1.0
529 819 1.0
529 826 1.0
530 734 1.0
530 741 1.0
530 748 1.0
530 755 1.0
530 762 1.0
530 769 1.0
530 776 1.0
530 783 1.0
530 790 1.0
530 797 1.0
530 804 1.0
530 811 1.0
530 818 1.0
530 825 1.0
530 832 1.0
530 839 1.0
531 747 1.0
531 754 1.0
531 761 1.0
531 768 1.0
531 775 1.0
531 782 1.0
531 789 1.0
531 796 1.0
531 803 1.0
531 810 1.0
531 817 1.0
531 824 1.0
531 831 1.0
531 838 1.0
531 845 1.0
531 852 1.0
532 760 1.0
532 767 1.0
532 774 1.0
532 781 1.0
532 788 1.0
532 795 1.0
532 802 1.0
532 809 1.0
532 816 1.0
532 823 1.0
532 830 1.0
532 837 1.0
532 844 1.0
532 851 1.0
532 858 1.0
532 865 1.0
533 773 1.0
533 780 1.0
533 787 1.0
533 794 1.0
533 801 1.0
533 808 1.0
533 815 1.0
533 822 1.0
533 829 1.0
533 836 1.0
533 843 1.0
533 850 1.0
533 857 1.0
533 864 1.0
533 871 1.0
533 878 1.0
534 786 1.0
534 793 1.0
534 800 1.0
534 807 1.0
534 814 1.0
534 821 1.0
534 828 1.0
534 835 1.0
534 842 1.0
534 849 1.0
534 856 1.0
534 863 1.0
534 870 1.0
534 877 1.0
534 884 1.0
534 891 1.0
535 799 1.0
535 806 1.0
535 813 1.0
535 820 1.0
535 827 1.0
535 834 1.0
535 841 1.0
535 848 1.0
535 855 1.0
535 862 1.0
535 869 1.0
535 876 1.0
535 883 1.0
535 890 1.0
535 897 1.0
535 904 1.0
536 812 1.0
536 819 1.0
536 826 1.0
536 833 1.0
536 840 1.0
536 847 1.0
536 854 1.0
536 861 1.0
536 868 1.0
536 875 1.0
536 882 1.0
536 889 1.0
536 896 1.0
536 903 1.0
536 910 1.0
536 917 1.0
537 825 1.0
537 832 1.0
537 839 1.0
537 846 1.0
537 853 1.0
537 860 1.0
537 867 1.0
537 874 1.0
537 881 1.0
537 888 1.0
537 895 1.0
537 902 1.0
537 909 1.0
537 916 1.0
537 923 1.0
537 930 1.0
538 838 1.0
538 845 1.0
538 852 1.0
538 859 1.0
538 866 1.0
538 873 1.0
538 880 1.0
538 887 1.0
538 894 1.0
538 901 1.0
538 908 1.0
538 915 1.0
538 922 1.0
538 929 1.0
538 936 1.0
538 943 1.0
539 851 1.0
539 858 1.0
539 865 1.0
539 872 1.0
539 879 1.0
539 886 1.0
539 893 1.0
539 900 1.0
539 907 1.0
539 914 1.0
539 921 1.0
539 928 1.0
539 935 1.0
539 942 1.0
539 949 1.0
539 956 1.0
540 864 1.0
540 871 1.0
540 878 1.0
540 885 1.0
540 892 1.0
540 899 1.0
540 906 1.0
540 913 1.0
540 920 1.0
540 927 1.0
540 934 1.0
540 941 1.0
540 948 1.0
540 955 1.0
540 962 1.0
540 969 1.0
541 877 1.0
541 884 1.0
541 891 1.0
541 898 1.0
541 905 1.0
541 912 1.0
541 919 1.0
541 926 1.0
541 933 1.0
541 940 1.0
541 947 1.0
541 954 1.0
541 961 1.0
541 968 1.0
541 975 1.0
541 982 1.0
542 890 1.0
542 897 1.0
542 904 1.0
542 911 1.0
542 918 1.0
542 925 1.0
542 932 1.0
542 939 1.0
542 946 1.0
542 953 1.0
542 960 1.0
542 967 1.0
542 974 1.0
542 981 1.0
542 988 1.0
542 995 1.0
543 903 1.0
543 910 1.0
543 917 1.0
543 924 1.0
543 931 1.0
543 938 1.0
543 945 1.0
543 952 1.0
543 959 1.0
543 966 1.0
543 973 1.0
543 980 1.0
543 987 1.0
543 994 1.0
543 1001 1.0
543 1008 1.0
544 916 1.0
544 923 1.0
544 930 1.0
544 937 1.0
544 944 1.0
544 951 1.0
544 958 1.0
544 965 1.0
544 972 1.0
544 979 1.0
544 986 1.0
544 993 1.0
544 1000 1.0
544 1007 1.0
544 1014 1.0
544 1021 1.0
545 929 1.0
545 936 1.0
545 943 1.0
545 950 1.0
545 957 1.0
545 964 1.0
545 971 1.0
545 978 1.0
545 985 1.0
545 992 1.0
545 999 1.0
545 1006 1.0
545 1013 1.0
545 1020 1.0
545 3 1.0
545 10 1.0
546 942 1.0
546 949 1.0
546 956 1.0
546 963 1.0
546 970 1.0
546 977 1.0
546 984 1.0
546 991 1.0
546 998 1.0
546 1005 1.0
546 1012 1.0
546 1019 1.0
546 2 1.0
546 9 1.0
546 16 1.0
546 23 1.0
547 955 1.0
547 962 1.0
547 969 1.0
547 976 1.0
547 983 1.0
547 990 1.0
547 997 1.0
547 1004 1.0
547 1011 1.0
547 1018 1.0
547 1 1.0
547 8 1.0
547 15 1.0
547 22 1.0
547 29 1.0
547 36 1.0
548 968 1.0
548 975 1.0
548 982 1.0
548 989 1.0
548 996 1.0
548 1003 1.0
548 1010 1.0
548 1017 1.0
548 1024 1.0
548 7 1.0
548 14 1.0
548 21 1.0
548 28 1.0
548 35 1.0
548 42 1.0
548 49 1.0
549 981 1.0
549 988 1.0
549 995 1.0
549 1002 1.0
549 1009 1.0
549 1016 1.0
549 1023 1.0
549 6 1.0
549 13 1.0
549 20 1.0
549 27 1.0
549 34 1.0
549 41 1.0
549 48 1.0
549 55 1.0
549 62 1.0
550 994 1.0
550 1001 1.0
550 1008 1.0
550 1015 1.0
550 1022 1.0
550 5 1.0
550 12 1.0
550 19 1.0
550 26 1.0
550 33 1.0
550 40 1.0
550 47 1.0
550 54 1.0
550 61 1.0
550 68 1.0
550 75 1.0
551 1007 1.0
551 1014 1.0
551 1021 1.0
551 4 1.0
551 11 1.0
551 18 1.0
551 25 1.0
551 32 1.0
551 39 1.0
551 46 1.0
551 53 1.0
551 60 1.0
551 67 1.0
551 74 1.0
551 81 1.0
551 88 1.0
552 1020 1.0
552 3 1.0
552 10 1.0
552 17 1.0
552 24 1.0
552 31 1.0
552 38 1.0
552 45 1.0
552 52 1.0
552 59 1.0
552 66 1.0
552 73 1.0
552 80 1.0
552 87 1.0
552 94 1.0
552 101 1.0
553 9 1.0
553 16 1.0
553 23 1.0
553 30 1.0
553 37 1.0
553 44 1.0
553 51 1.0
553 58 1.0
553 65 1.0
553 72 1.0
553 79 1.0
553 86 1.0
553 93 1.0
553 100 1.0
553 107 1.0
553 114 1.0
554 22 1.0
554 29 1.0
554 36 1.0
554 43 1.0
554 50 1.0
554 57 1.0
554 64 1.0
554 71 1.0
554 78 1.0
554 85 1.0
554 92 1.0
554 99 1.0
554 106 1.0
554 113 1.0
554 120 1.0
554 127 1.0
555 35 1.0
555 42 1.0
555 49 1.0
555 56 1.0
555 63 1.0
555 70 1.0
555 77 1.0
555 84 1.0
555 91 1.0
555 98 1.0
555 105 1.0
555 112 1.0
555 119 1.0
555 126 1.0
555 133 1.0
555 140 1.0
556 48 1.0
556 55 1.0
556 62 1.0
556 69 1.0
556 76 1.0
556 83 1.0
556 90 1.0
556 97 1.0
556 104 1.0
556 111 1.0
556 118 1.0
556 125 1.0
556 132 1.0
556 139 1.0
556 146 1.0
556 153 1.0
557 61 1.0
557 68 1.0
557 75 1.0
557 82 1.0
557 89 1.0
557 96 1.0
557 103 1.0
557 110 1.0
557 117 1.0
557 124 1.0
557 131 1.0
557 138 1.0
557 145 1.0
557 152 1.0
557 159 1.0
557 166 1.0
558 74 1.0
558 81 1.0
558 88 1.0
558 95 1.0
558 102 1.0
558 109 1.0
558 116 1.0
558 123 1.0
558 130 1.0
558 137 1.0
558 144 1.0
558 151 1.0
558 158 1.0
558 165 1.0
558 172 1.0
558 179 1.0
559 87 1.0
559 94 1.0
559 101 1.0
559 108 1.0
559 115 1.0
559 122 1.0
559 129 1.0
559 136 1.0
559 143 1.0
559 150 1.0
559 157 1.0
559 164 1.0
559 171 1.0
559 178 1.0
559 185 1.0
559 192 1.0
560 100 1.0
560 107 1.0
560 114 1.0
560 121 1.0
560 128 1.0
560 135 1.0
560 142 1.0
560 149 1.0
560 156 1.0
560 163 1.0
560 170 1.0
560 177 1.0
560 184 1.0
560 191 1.0
560 198 1.0
560 205 1.0
561 113 1.0
561 120 1.0
561 127 1.0
561 134 1.0
561 141 1.0
561 148 1.0
561 155 1.0
561 162 1.0
561 169 1.0
561 176 1.0
561 183 1.0
561 190 1.0
561 197 1.0
561 204 1.0
561 211 1.0
561 218 1.0
562 126 1.0
562 133 1.0
562 140 1.0
562 147 1.0
562 154 1.0
562 161 1.0
562 168 1.0
562 175 1.0
562 182 1.0
562 189 1.0
562 196 1.0
562 203 1.0
562 210 1.0
562 217 1.0
562 224 1.0
562 231 1.0
563 139 1.0
563 146 1.0
563 153 1.0
563 160 1.0
563 167 1.0
563 174 1.0
563 181 1.0
563 188 1.0
563 195 1.0
563 202 1.0
563 209 1.0
563 216 1.0
563 223 1.0
563 230 1.0
563 237 1.0
563 244 1.0
564 152 1.0
564 159 1.0
564 166 1.0
564 173 1.0
564 180 1.0
564 187 1.0
564 194 1.0
564 201 1.0
564 208 1.0
564 215 1.0
564 222 1.0
564 229 1.0
564 236 1.0
564 243 1.0
564 250 1.0
564 257 1.0
565 165 1.0
565 172 1.0
565 179 1.0
565 186 1.0
565 193 1.0
565 200 1.0
565 207 1.0
565 214 1.0
565 221 1.0
565 228 1.0
565 235 1.0
565 242 1.0
565 249 1.0
565 256 1.0
565 263 1.0
565 270 1.0
566 178 1.0
566 185 1.0
566 192 1.0
566 199 1.0
566 206 1.0
566 213 1.0
566 220 1.0
566 227 1.0
566 234 1.0
566 241 1.0
566 248 1.0
566 255 1.0
566 262 1.0
566 269 1.0
566 276 1.0
566 283 1.0
567 191 1.0
567 198 1.0
567 205 1.0
567 212 1.0
567 219 1.0
567 226 1.0
567 233 1.0
567 240 1.0
567 247 1.0
567 254 1.0
567 261 1.0
567 268 1.0
567 275 1.0
567 282 1.0
567 289 1.0
567 296 1.0
568 204 1.0
568 211 1.0
568 218 1.0
568 225 1.0
568 232 1.0
568 239 1.0
568 246 1.0
568 253 1.0
568 260 1.0
568 267 1.0
568 274 1.0
568 281 1.0
568 288 1.0
568 295 1.0
568 302 1.0
568 309 1.0
569 217 1.0
569 224 1.0
569 231 1.0
569 238 1.0
569 245 1.0
569 252 1.0
569 259 1.0
569 266 1.0
569 273 1.0
569 280 1.0
569 287 1.0
569 294 1.0
569 301 1.0
569 308 1.0
569 315 1.0
569 322 1.0
570 230 1.0
570 237 1.0
570 244 1.0
570 251 1.0
570 258 1.0
570 265 1.0
570 272 1.0
570 279 1.0
570 286 1.0
570 293 1.0
570 300 1.0
570 307 1.0
570 314 1.0
570 321 1.0
570 328 1.0
570 335 1.0
571 243 1.0
571 250 1.0
571 257 1.0
571 264 1.0
571 271 1.0
571 278 1.0
571 285 1.0
571 292 1.0
571 299 1.0
571 306 1.0
571 313 1.0
571 320 1.0
571 327 1.0
571 334 1.0
571 341 1.0
571 348 1.0
572 256 1.0
572 263 1.0
572 270 1.0
572 277 1.0
572 284 1.0
572 291 1.0
572 298 1.0
572 305 1.0
572 312 1.0
572 319 1.0
572 326 1.0
572 333 1.0
572 340 1.0
572 347 1.0
572 354 1.0
572 361 1.0
573 269 1.0
573 276 1.0
573 283 1.0
573 290 1.0
573 297 1.0
573 304 1.0
573 311 1.0
573 318 1.0
573 325 1.0
573 332 1.0
573 339 1.0
573 346 1.0
573 353 1.0
573 360 1.0
573 367 1.0
573 374 1.0
574 282 1.0
574 289 1.0
574 296 1.0
574 303 1.0
574 310 1.0
574 317 1.0
574 324 1.0
574 331 1.0
574 338 1.0
574 345 1.0
574 352 1.0
574 359 1.0
574 366 1.0
574 373 1.0
574 380 1.0
574 387 1.0
575 295 1.0
575 302 1.0
575 309 1.0
575 316 1.0
575 323 1.0
575 330 1.0
575 337 1.0
575 344 1.0
575 351 1.0
575 358 1.0
575 365 1.0
575 372 1.0
575 379 1.0
575 386 1.0
575 393 1.0
575 400 1.0
576 308 1.0
576 315 1.0
576 322 1.0
576 329 1.0
576 336 1.0
576 343 1.0
576 350 1.0
576 357 1.0
576 364 1.0
576 371 1.0
576 378 1.0
576 385 1.0
576 392 1.0
576 399 1.0
576 406 1.0
576 413 1.0
577 321 1.0
577 328 1.0
577 335 1.0
577 342 1.0
577 349 1.0
577 356 1.0
577 363 1.0
577 370 1.0
577 377 1.0
577 384 1.0
577 391 1.0
577 398 1.0
577 405 1.0
577 412 1.0
577 419 1.0
577 426 1.0
578 334 1.0
578 341 1.0
578 348 1.0
578 355 1.0
578 362 1.0
578 369 1.0
578 376 1.0
578 383 1.0
578 390 1.0
578 397 1.0
578 404 1.0
578 411 1.0
578 418 1.0
578 425 1.0
578 432 1.0
578 439 1.0
579 347 1.0
579 354 1.0
579 361 1.0
579 368 1.0
579 375 1.0
579 382 1.0
579 389 1.0
579 396 1.0
579 403 1.0
579 410 1.0
579 417 1.0
579 424 1.0
579 431 1.0
579 438 1.0
579 445 1.0
579 452 1.0
580 360 1.0
580 367 1.0
580 374 1.0
580 381 1.0
580 388 1.0
580 395 1.0
580 402 1.0
580 409 1.0
580 416 1.0
580 423 1.0
580 430 1.0
580 437 1.0
580 444 1.0
580 451 1.0
580 458 1.0
580 465 1.0
581 373 1.0
581 380 1.0
581 387 1.0
581 394 1.0
581 401 1.0
581 408 1.0
581 415 1.0
581 422 1.0
581 429 1.0
581 436 1.0
581 443 1.0
581 450 1.0
581 457 1.0
581 464 1.0
581 471 1.0
581 478 1.0
582 386 1.0
582 393 1.0
582 400 1.0
582 407 1.0
582 414 1.0
582 421 1.0
582 428 1.0
582 435 1.0
582 442 1.0
582 449 1.0
582 456 1.0
582 463 1.0
582 470 1.0
582 477 1.0
582 484 1.0
582 491 1.0
583 399 1.0
583 406 1.0
583 413 1.0
583 420 1.0
583 427 1.0
583 434 1.0
583 441 1.0
583 448 1.0
583 455 1.0
583 462 1.0
583 469 1.0
583 476 1.0
583 483 1.0
583 490 1.0
583 497 1.0
583 504 1.0
584 412 1.0
584 419 1.0
584 426 1.0
584 433 1.0
584 440 1.0
584 447 1.0
584 454 1.0
584 461 1.0
584 468 1.0
584 475 1.0
584 482 1.0
584 489 1.0
584 496 1.0
584 503 1.0
584 510 1.0
584 517 1.0
585 425 1.0
585 432 1.0
585 439 1.0
585 446 1.0
585 453 1.0
585 460 1.0
585 467 1.0
585 474 1.0
585 481 1.0
585 488 1.0
585 495 1.0
585 502 1.0
585 509 1.0
585 516 1.0
585 523 1.0
585 530 1.0
586 438 1.0
586 445 1.0
586 452 1.0
586 459 1.0
586 466 1.0
586 473 1.0
586 480 1.0
586 487 1.0
586 494 1.0
586 501 1.0
586 508 1.0
586 515 1.0
586 522 1.0
586 529 1.0
586 536 1.0
586 543 1.0
587 451 1.0
587 458 1.0
587 465 1.0
587 472 1.0
587 479 1.0
587 486 1.0
587 493 1.0
587 500 1.0
587 507 1.0
587 514 1.0
587 521 1.0
587 528 1.0
587 535 1.0
587 542 1.0
587 549 1.0
587 556 1.0
588 464 1.0
588 471 1.0
588 478 1.0
588 485 1.0
588 492 1.0
588 499 1.0
588 506 1.0
588 513 1.0
588 520 1.0
588 527 1.0
588 534 1.0
588 541 1.0
588 548 1.0
588 555 1.0
588 562 1.0
588 569 1.0
589 477 1.0
589 484 1.0
589 491 1.0
589 498 1.0
589 505 1.0
589 512 1.0
589 519 1.0
589 526 1.0
589 533 1.0
589 540 1.0
589 547 1.0
589 554 1.0
589 561 1.0
589 568 1.0
589 575 1.0
589 582 1.0
590 490 1.0
590 497 1.0
590 504 1.0
590 511 1.0
590 518 1.0
590 525 1.0
590 532 1.0
590 539 1.0
590 546 1.0
590 553 1.0
590 560 1.0
590 567 1.0
590 574 1.0
590 581 1.0
590 588 1.0
590 595 1.0
591 503 1.0
591 510 1.0
591 517 1.0
591 524 1.0
591 531 1.0
591 538 1.0
591 545 1.0
591 552 1.0
591 559 1.0
591 566 1.0
591 573 1.0
591 580 1.0
591 587 1.0
591 594 1.0
591 601 1.0
591 608 1.0
592 516 1.0
592 523 1.0
592 530 1.0
592 537 1.0
592 544 1.0
592 551 1.0
592 558 1.0
592 565 1.0
592 572 1.0
592 579 1.0
592 586 1.0
592 593 1.0
592 600 1.0
592 607 1.0
592 614 1.0
592 621 1.0
593 529 1.0
593 536 1.0
593 543 1.0
593 550 1.0
593 557 1.0
593 564 1.0
593 571 1.0
593 578 1.0
593 585 1.0
593 592 1.0
593 599 1.0
593 606 1.0
593 613 1.0
593 620 1.0
593 627 1.0
593 634 1.0
594 542 1.0
594 549 1.0
594 556 1.0
594 563 1.0
594 570 1.0
594 577 1.0
594 584 1.0
594 591 1.0
594 598 1.0
594 605 1.0
594 612 1.0
594 619 1.0
594 626 1.0
594 633 1.0
594 640 1.0
594 647 1.0
595 555 1.0
595 562 1.0
595 569 1.0
595 576 1.0
595 583 1.0
595 590 1.0
595 597 1.0
595 604 1.0
595 611 1.0
595 618 1.0
595 625 1.0
595 632 1.0
595 639 1.0
595 646 1.0
595 653 1.0
595 660 1.0
596 568 1.0
596 575 1.0
596 582 1.0
596 589 1.0
596 596 1.0
596 603 1.0
596 610 1.0
596 617 1.0
596 624 1.0
596 631 1.0
596 638 1.0
596 645 1.0
596 652 1.0
596 659 1.0
596 666 1.0
596 673 1.0
597 581 1.0
597 588 1.0
597 595 1.0
597 602 1.0
597 609 1.0
597 616 1.0
597 623 1.0
597 630 1.0
597 637 1.0
597 644 1.0
597 651 1.0
597 658 1.0
597 665 1.0
597 672 1.0
597 679 1.0
597 686 1.0
598 594 1.0
598 601 1.0
598 608 1.0
598 615 1.0
598 622 1.0
598 629 1.0
598 636 1.0
598 643 1.0
598 650 1.0
598 657 1.0
598 664 1.0
598 671 1.0
598 678 1.0
598 685 1.0
598 692 1.0
598 699 1.0
599 607 1.0
599 614 1.0
599 621 1.0
599 628 1.0
599 635 1.0
599 642 1.0
599 649 1.0
599 656 1.0
599 663 1.0
599 670 1.0
599 677 1.0
599 684 1.0
599 691 1.0
599 698 1.0
599 705 1.0
599 712 1.0
600 620 1.0
600 627 1.0
600 634 1.0
600 641 1.0
600 648 1.0
600 655 1.0
600 662 1.0
600 669 1.0
600 676 1.0
600 683 1.0
600 690 1.0
600 697 1.0
600 704 1.0
600 711 1.0
600 718 1.0
600 725 1.0
601 633 1.0
601 640 1.0
601 647 1.0
601 654 1.0
601 661 1.0
601 668 1.0
601 675 1.0
601 682 1.0
601 689 1.0
601 696 1.0
601 703 1.0
601 710 1.0
601 717 1.0
601 724 1.0
601 731 1.0
601 738 1.0
602 646 1.0
602 653 1.0
602 660 1.0
602 667 1.0
602 674 1.0
602 681 1.0
602 688 1.0
602 695 1.0
602 702 1.0
602 709 1.0
602 716 1.0
602 723 1.0
602 730 1.0
602 737 1.0
602 744 1.0
602 751 1.0
603 659 1.0
603 666 1.0
603 673 1.0
603 680 1.0
603 687 1.0
603 694 1.0
603 701 1.0
603 708 1.0
603 715 1.0
603 722 1.0
603 729 1.0
603 736 1.0
603 743 1.0
603 750 1.0
603 757 1.0
603 764 1.0
604 672 1.0
604 679 1.0
604 686 1.0
604 693 1.0
604 700 1.0
604 707 1.0
604 714 1.0
604 721 1.0
604 728 1.0
604 735 1.0
604 742 1.0
604 749 1.0
604 756 1.0
604 763 1.0
604 770 1.0
604 777 1.0
605 685 1.0
605 692 1.0
605 699 1.0
605 706 1.0
605 713 1.0
605 720 1.0
605 727 1.0
605 734 1.0
605 741 1.0
605 748 1.0
605 755 1.0
605 762 1.0
605 769 1.0
605 776 1.0
605 783 1.0
605 790 1.0
606 698 1.0
606 705 1.0
606 712 1.0
606 719 1.0
606 726 1.0
606 733 1.0
606 740 1.0
606 747 1.0
606 754 1.0
606 761 1.0
606 768 1.0
606 775 1.0
606 782 1.0
606 789 1.0
606 796 1.0
606 803 1.0
607 711 1.0
607 718 1.0
607 725 1.0
607 732 1.0
607 739 1.0
607 746 1.0
607 753 1.0
607 760 1.0
607 767 1.0
607 774 1.0
607 781 1.0
607 788 1.0
607 795 1.0
607 802 1.0
607 809 1.0
607 816 1.0
608 724 1.0
608 731 1.0
608 738 1.0
608 745 1.0
608 752 1.0
608 759 1.0
608 766 1.0
608 773 1.0
608 780 1.0
608 787 1.0
608 794 1.0
608 801 1.0
608 808 1.0
608 815 1.0
608 822 1.0
608 829 1.0
609 737 1.0
609 744 1.0
609 751 1.0
609 758 1.0
609 765 1.0
609 772 1.0
609 779 1.0
609 786 1.0
609 793 1.0
609 800 1.0
609 807 1.0
609 814 1.0
609 821 1.0
609 828 1.0
609 835 1.0
609 842 1.0
610 750 1.0
610 757 1.0
610 764 1.0
610 771 1.0
610 778 1.0
610 785 1.0
610 792 1.0
610 799 1.0
610 806 1.0
610 813 1.0
610 820 1.0
610 827 1.0
610 834 1.0
610 841 1.0
610 848 1.0
610 855 1.0
611 763 1.0
611 770 1.0
611 777 1.0
611 784 1.0
611 791 1.0
611 798 1.0
611 805 1.0
611 812 1.0
611 819 1.0
611 826 1.0
611 833 1.0
611 840 1.0
611 847 1.0
611 854 1.0
611 861 1.0
611 868 1.0
612 776 1.0
612 783 1.0
612 790 1.0
612 797 1.0
612 804 1.0
612 811 1.0
612 818 1.0
612 825 1.0
612 832 1.0
612 839 1.0
612 846 1.0
612 853 1.0
612 860 1.0
612 867 1.0
612 874 1.0
612 881 1.0
613 789 1.0
613 796 1.0
613 803 1.0
613 810 1.0
613 817 1.0
613 824 1.0
613 831 1.0
613 838 1.0
613 845 1.0
613 852 1.0
613 859 1.0
613 866 1.0
613 873 1.0
613 880 1.0
613 887 1.0
613 894 1.0
614 802 1.0
614 809 1.0
614 816 1.0
614 823 1.0
614 830 1.0
614 837 1.0
614 844 1.0
614 851 1.0
614 858 1.0
614 865 1.0
614 872 1.0
614 879 1.0
614 886 1.0
614 893 1.0
614 900 1.0
614 907 1.0
615 815 1.0
615 822 1.0
615 829 1.0
615 836 1.0
615 843 1.0
615 850 1.0
615 857 1.0
615 864 1.0
615 871 1.0
615 878 1.0
615 885 1.0
615 892 1.0
615 899 1.0
615 906 1.0
615 913 1.0
615 920 1.0
616 828 1.0
616 835 1.0
616 842 1.0
616 849 1.0
616 856 1.0
616 863 1.0
616 870 1.0
616 877 1.0
616 884 1.0
616 891 1.0
616 898 1.0
616 905 1.0
616 912 1.0
616 919 1.0
616 926 1.0
616 933 1.0
617 841 1.0
617 848 1.0
617 855 1.0
617 862 1.0
617 869 1.0
617 876 1.0
617 883 1.0
617 890 1.0
617 897 1.0
617 904 1.0
617 911 1.0
617 918 1.0
617 925 1.0
617 932 1.0
617 939 1.0
617 946 1.0
618 854 1.0
618 861 1.0
618 868 1.0
618 875 1.0
618 882 1.0
618 889 1.0
618 896 1.0
618 903 1.0
618 910 1.0
618 917 1.0
618 924 1.0
618 931 1.0
618 938 1.0
618 945 1.0
618 952 1.0
618 959 1.0
619 867 1.0
619 874 1.0
619 881 1.0
619 888 1.0
619 895 1.0
619 902 1.0
619 909 1.0
619 916 1.0
619 923 1.0
619 930 1.0
619 937 1.0
619 944 1.0
619 951 1.0
619 958 1.0
619 965 1.0
619 972 1.0
620 880 1.0
620 887 1.0
620 894 1.0
620 901 1.0
620 908 1.0
620 915 1.0
620 922 1.0
620 929 1.0
620 936 1.0
620 943 1.0
620 950 1.0
620 957 1.0
620 964 1.0
620 971 1.0
620 978 1.0
620 985 1.0
621 893 1.0
621 900 1.0
621 907 1.0
621 914 1.0
621 921 1.0
621 928 1.0
621 935 1.0
621 942 1.0
621 949 1.0
621 956 1.0
621 963 1.0
621 970 1.0
621 977 1.0
621 984 1.0
621 991 1.0
621 998 1.0
622 906 1.0
622 913 1.0
622 920 1.0
622 927 1.0
622 934 1.0
622 941 1.0
622 948 1.0
622 955 1.0
622 962 1.0
622 969 1.0
622 976 1.0
622 983 1.0
622 990 1.0
622 997 1.0
622 1004 1.0
622 1011 1.0
623 919 1.0
623 926 1.0
623 933 1.0
623 940 1.0
623 947 1.0
623 954 1.0
623 961 1.0
623 968 1.0
623 975 1.0
623 982 1.0
623 989 1.0
623 996 1.0
623 1003 1.0
623 1010 1.0
623 1017 1.0
623 1024 1.0
624 932 1.0
624 939 1.0
624 946 1.0
624 953 1.0
624 960 1.0
624 967 1.0
624 974 1.0
624 981 1.0
624 988 1.0
624 995 1.0
624 1002 1.0
624 1009 1.0
624 1016 1.0
624 1023 1.0
624 6 1.0
624 13 1.0
625 945 1.0
625 952 1.0
625 959 1.0
625 966 1.0
625 973 1.0
625 980 1.0
625 987 1.0
625 994 1.0
625 1001 1.0
625 1008 1.0
625 1015 1.0
625 1022 1.0
625 5 1.0
625 12 1.0
625 19 1.0
625 26 1.0
626 958 1.0
626 965 1.0
626 972 1.0
626 979 1.0
626 986 1.0
626 993 1.0
626 1000 1.0
626 1007 1.0
626 1014 1.0
626 1021 1.0
626 4 1.0
626 11 1.0
626 18 1.0
626 25 1.0
626 32 1.0
626 39 1.0
627 971 1.0
627 978 1.0
627 985 1.0
627 992 1.0
627 999 1.0
627 1006 1.0
627 1013 1.0
627 1020 1.0
627 3 1.0
627 10 1.0
627 17 1.0
627 24 1.0
627 31 1.0
627 38 1.0
627 45 1.0
627 52 1.0
628 984 1.0
628 991 1.0
628 998 1.0
628 1005 1.0
628 1012 1.0
628 1019 1.0
628 2 1.0
628 9 1.0
628 16 1.0
628 23 1.0
628 30 1.0
628 37 1.0
628 44 1.0
628 51 1.0
628 58 1.0
628 65 1.0
629 997 1.0
629 1004 1.0
629 1011 1.0
629 1018 1.0
629 1 1.0
629 8 1.0
629 15 1.0
629 22 1.0
629 29 1.0
629 36 1.0
629 43 1.0
629 50 1.0
629 57 1.0
629 64 1.0
629 71 1.0
629 78 1.0
630 1010 1.0
630 1017 1.0
630 1024 1.0
630 7 1.0
630 14 1.0
630 21 1.0
630 28 1.0
630 35 1.0
630 42 1.0
630 49 1.0
630 56 1.0
630 63 1.0
630 70 1.0
630 77 1.0
630 84 1.0
630 91 1.0
631 1023 1.0
631 6 1.0
631 13 1.0
631 20 1.0
631 27 1.0
631 34 1.0
631 41 1.0
631 48 1.0
631 55 1.0
631 62 1.0
631 69 1.0
631 76 1.0
631 83 1.0
631 90 1.0
631 97 1.0
631 104 1.0
632 12 1.0
632 19 1.0
632 26 1.0
632 33 1.0
632 40 1.0
632 47 1.0
632 54 1.0
632 61 1.0
632 68 1.0
632 75 1.0
632 82 1.0
632 89 1.0
632 96 1.0
632 103 1.0
632 110 1.0
632 117 1.0
633 25 1.0
633 32 1.0
633 39 1.0
633 46 1.0
633 53 1.0
633 60 1.0
633 67 1.0
633 74 1.0
633 81 1.0
633 88 1.0
633 95 1.0
633 102 1.0
633 109 1.0
633 116 1.0
633 123 1.0
633 130 1.0
634 38 1.0
634 45 1.0
634 52 1.0
634 59 1.0
634 66 1.0
634 73 1.0
634 80 1.0
634 87 1.0
634 94 1.0
634 101 1.0
634 108 1.0
634 115 1.0
634 122 1.0
634 129 1.0
634 136 1.0
634 143 1.0
635 51 1.0
635 58 1.0
635 65 1.0
635 72 1.0
635 79 1.0
635 86 1.0
635 93 1.0
635 100 1.0
635 107 1.0
635 114 1.0
635 121 1.0
635 128 1.0
635 135 1.0
635 142 1.0
635 149 1.0
635 156 1.0
636 64 1.0
636 71 1.0
636 78 1.0
636 85 1.0
636 92 1.0
636 99 1.0
636 106 1.0
636 113 1.0
636 120 1.0
636 127 1.0
636 134 1.0
636 141 1.0
636 148 1.0
636 155 1.0
636 162 1.0
636 169 1.0
637 77 1.0
637 84 1.0
637 91 1.0
637 98 1.0
637 105 1.0
637 112 1.0
637 119 1.0
637 126 1.0
637 133 1.0
637 140 1.0
637 147 1.0
637 154 1.0
637 161 1.0
637 168 1.0
637 175 1.0
637 182 1.0
638 90 1.0
638 97 1.0
638 104 1.0
638 111 1.0
638 118 1.0
638 125 1.0
638 132 1.0
638 139 1.0
638 146 1.0
638 153 1.0
638 160 1.0
638 167 1.0
638 174 1.0
638 181 1.0
638 188 1.0
638 195 1.0
639 103 1.0
639 110 1.0
639 117 1.0
639 124 1.0
639 131 1.0
639 138 1.0
639 145 1.0
639 152 1.0
639 159 1.0
639 166 1.0
639 173 1.0
639 180 1.0
639 187 1.0
639 194 1.0
639 201 1.0
639 208 1.0
640 116 1.0
640 123 1.0
640 130 1.0
640 137 1.0
640 144 1.0
640 151 1.0
640 158 1.0
640 165 1.0
640 172 1.0
640 179 1.0
640 186 1.0
640 193 1.0
640 200 1.0
640 207 1.0
640 214 1.0
640 221 1.0
641 129 1.0
641 136 1.0
641 143 1.0
641 150 1.0
641 157 1.0
641 164 1.0
641 171 1.0
641 178 1.0
641 185 1.0
641 192 1.0
641 199 1.0
641 206 1.0
641 213 1.0
641 220 1.0
641 227 1.0
641 234 1.0
642 142 1.0
642 149 1.0
642 156 1.0
642 163 1.0
642 170 1.0
642 177 1.0
642 184 1.0
642 191 1.0
642 198 1.0
642 205 1.0
642 212 1.0
642 219 1.0
642 226 1.0
642 233 1.0
642 240 1.0
642 247 1.0
643 155 1.0
643 162 1.0
643 169 1.0
643 176 1.0
643 183 1.0
643 190 1.0
643 197 1.0
643 204 1.0
643 211 1.0
643 218 1.0
643 225 1.0
643 232 1.0
643 239 1.0
643 246 1.0
643 253 1.0
643 260 1.0
644 168 1.0
644 175 1.0
644 182 1.0
644 189 1.0
644 196 1.0
644 203 1.0
644 210 1.0
644 217 1.0
644 224 1.0
644 231 1.0
644 238 1.0
644 245 1.0
644 252 1.0
644 259 1.0
644 266 1.0
644 273 1.0
645 181 1.0
645 188 1.0
645 195 1.0
645 202 1.0
645 209 1.0
645 216 1.0
645 223 1.0
645 230 1.0
645 237 1.0
645 244 1.0
645 251 1.0
645 258 1.0
645 265 1.0
645 272 1.0
645 279 1.0
645 286 1.0
646 194 1.0
646 201 1.0
646 208 1.0
646 215 1.0
646 222 1.0
646 229 1.0
646 236 1.0
646 243 1.0
646 250 1.0
646 257 1.0
646 264 1.0
646 271 1.0
646 278 1.0
646 285 1.0
646 292 1.0
646 299 1.0
647 207 1.0
647 214 1.0
647 221 1.0
647 228 1.0
647 235 1.0
647 242 1.0
647 249 1.0
647 256 1.0
647 263 1.0
647 270 1.0
647 277 1.0
647 284 1.0
647 291 1.0
647 298 1.0
647 305 1.0
647 312 1.0
648 220 1.0
648 227 1.0
648 234 1.0
648 241 1.0
648 248 1.0
648 255 1.0
648 262 1.0
648 269 1.0
648 276 1.0
648 283 1.0
648 290 1.0
648 297 1.0
648 304 1.0
648 311 1.0
648 318 1.0
648 325 1.0
649 233 1.0
649 240 1.0
649 247 1.0
649 254 1.0
649 261 1.0
649 268 1.0
649 275 1.0
649 282 1.0
649 289 1.0
649 296 1.0
649 303 1.0
649 310 1.0
649 317 1.0
649 324 1.0
649 331 1.0
649 338 1.0
650 246 1.0
650 253 1.0
650 260 1.0
650 267 1.0
650 274 1.0
650 281 1.0
650 288 1.0
650 295 1.0
650 302 1.0
650 309 1.0
650 316 1.0
650 323 1.0
650 330 1.0
650 337 1.0
650 344 1.0
650 351 1.0
651 259 1.0
651 266 1.0
651 273 1.0
651 280 1.0
651 287 1.0
651 294 1.0
651 301 1.0
651 308 1.0
651 315 1.0
651 322 1.0
651 329 1.0
651 336 1.0
651 343 1.0
651 350 1.0
651 357 1.0
651 364 1.0
652 272 1.0
652 279 1.0
652 286 1.0
652 293 1.0
652 300 1.0
652 307 1.0
652 314 1.0
652 321 1.0
652 328 1.0
652 335 1.0
652 342 1.0
652 349 1.0
652 356 1.0
652 363 1.0
652 370 1.0
652 377 1.0
653 285 1.0
653 292 1.0
653 299 1.0
653 306 1.0
653 313 1.0
653 320 1.0
653 327 1.0
653 334 1.0
653 341 1.0
653 348 1.0
653 355 1.0
653 362 1.0
653 369 1.0
653 376 1.0
653 383 1.0
653 390 1.0
654 298 1.0
654 305 1.0
654 312 1.0
654 319 1.0
654 326 1.0
654 333 1.0
654 340 1.0
654 347 1.0
654 354 1.0
654 361 1.0
654 368 1.0
654 375 1.0
654 382 1.0
654 389 1.0
654 396 1.0
654 403 1.0
655 311 1.0
655 318 1.0
655 325 1.0
655 332 1.0
655 339 1.0
655 346 1.0
655 353 1.0
655 360 1.0
655 367 1.0
655 374 1.0
655 381 1.0
655 388 1.0
655 395 1.0
655 402 1.0
655 409 1.0
655 416 1.0
656 324 1.0
656 331 1.0
656 338 1.0
656 345 1.0
656 352 1.0
656 359 1.0
656 366 1.0
656 373 1.0
656 380 1.0
656 387 1.0
656 394 1.0
656 401 1.0
656 408 1.0
656 415 1.0
656 422 1.0
656 429 1.0
657 337 1.0
657 344 1.0
657 351 1.0
657 358 1.0
657 365 1.0
657 372 1.0
657 379 1.0
657 386 1.0
657 393 1.0
657 400 1.0
657 407 1.0
657 414 1.0
657 421 1.0
657 428 1.0
657 435 1.0
657 442 1.0
658 350 1.0
658 357 1.0
658 364 1.0
658 371 1.0
658 378 1.0
658 385 1.0
658 392 1.0
658 399 1.0
658 406 1.0
658 413 1.0
658 420 1.0
658 427 1.0
658 434 1.0
658 441 1.0
658 448 1.0
658 455 1.0
659 363 1.0
659 370 1.0
659 377 1.0
659 384 1.0
659 391 1.0
659 398 1.0
659 405 1.0
659 412 1.0
659 419 1.0
659 426 1.0
659 433 1.0
659 440 1.0
659 447 1.0
659 454 1.0
659 461 1.0
659 468 1.0
660 376 1.0
660 383 1.0
660 390 1.0
660 397 1.0
660 404 1.0
660 411 1.0
660 418 1.0
660 425 1.0
660 432 1.0
660 439 1.0
660 446 1.0
660 453 1.0
660 460 1.0
660 467 1.0
660 474 1.0
660 481 1.0
661 389 1.0
661 396 1.0
661 403 1.0
661 410 1.0
661 417 1.0
661 424 1.0
661 431 1.0
661 438 1.0
661 445 1.0
661 452 1.0
661 459 1.0
661 466 1.0
661 473 1.0
661 480 1.0
661 487 1.0
661 494 1.0
662 402 1.0
662 409 1.0
662 416 1.0
662 423 1.0
662 430 1.0
662 437 1.0
662 444 1.0
662 451 1.0
662 458 1.0
662 465 1.0
662 472 1.0
662 479 1.0
662 486 1.0
662 493 1.0
662 500 1.0
662 507 1.0
663 415 1.0
663 422 1.0
663 429 1.0
663 436 1.0
663 443 1.0
663 450 1.0
663 457 1.0
663 464 1.0
663 471 1.0
663 478 1.0
663 485 1.0
663 492 1.0
663 499 1.0
663 506 1.0
663 513 1.0
663 520 1.0
664 428 1.0
664 435 1.0
664 442 1.0
664 449 1.0
664 456 1.0
664 463 1.0
664 470 1.0
664 477 1.0
664 484 1.0
664 491 1.0
664 498 1.0
664 505 1.0
664 512 1.0
664 519 1.0
664 526 1.0
664 533 1.0
665 441 1.0
665 448 1.0
665 455 1.0
665 462 1.0
665 469 1.0
665 476 1.0
665 483 1.0
665 490 1.0
665 497 1.0
665 504 1.0
665 511 1.0
665 518 1.0
665 525 1.0
665 532 1.0
665 539 1.0
665 546 1.0
666 454 1.0
666 461 1.0
666 468 1.0
666 475 1.0
666 482 1.0
666 489 1.0
666 496 1.0
666 503 1.0
666 510 1.0
666 517 1.0
666 524 1.0
666 531 1.0
666 538 1.0
666 545 1.0
666 552 1.0
666 559 1.0
667 467 1.0
667 474 1.0
667 481 1.0
667 488 1.0
667 495 1.0
667 502 1.0
667 509 1.0
667 516 1.0
667 523 1.0
667 530 1.0
667 537 1.0
667 544 1.0
667 551 1.0
667 558 1.0
667 565 1.0
667 572 1.0
668 480 1.0
668 487 1.0
668 494 1.0
668 501 1.0
668 508 1.0
668 515 1.0
668 522 1.0
668 529 1.0
668 536 1.0
668 543 1.0
668 550 1.0
668 557 1.0
668 564 1.0
668 571 1.0
668 578 1.0
668 585 1.0
669 493 1.0
669 500 1.0
669 507 1.0
669 514 1.0
669 521 1.0
669 528 1.0
669 535 1.0
669 542 1.0
669 549 1.0
669 556 1.0
669 563 1.0
669 570 1.0
669 577 1.0
669 584 1.0
669 591 1.0
669 598 1.0
670 506 1.0
670 513 1.0
670 520 1.0
670 527 1.0
670 534 1.0
670 541 1.0
670 548 1.0
670 555 1.0
670 562 1.0
670 569 1.0
670 576 1.0
670 583 1.0
670 590 1.0
670 597 1.0
670 604 1.0
670 611 1.0
671 519 1.0
671 526 1.0
671 533 1.0
671 540 1.0
671 547 1.0
671 554 1.0
671 561 1.0
671 568 1.0
671 575 1.0
671 582 1.0
671 589 1.0
671 596 1.0
671 603 1.0
671 610 1.0
671 617 1.0
671 624 1.0
672 532 1.0
672 539 1.0
672 546 1.0
672 553 1.0
672 560 1.0
672 567 1.0
672 574 1.0
672 581 1.0
672 588 1.0
672 595 1.0
672 602 1.0
672 609 1.0
672 616 1.0
672 623 1.0
672 630 1.0
672 637 1.0
673 545 1.0
673 552 1.0
673 559 1.0
673 566 1.0
673 573 1.0
673 580 1.0
673 587 1.0
673 594 1.0
673 601 1.0
673 608 1.0
673 615 1.0
673 622 1.0
673 629 1.0
673 636 1.0
673 643 1.0
673 650 1.0
674 558 1.0
674 565 1.0
674 572 1.0
674 579 1.0
674 586 1.0
674 593 1.0
674 600 1.0
674 607 1.0
674 614 1.0
674 621 1.0
674 628 1.0
674 635 1.0
674 642 1.0
674 649 1.0
674 656 1.0
674 663 1.0
675 571 1.0
675 578 1.0
675 585 1.0
675 592 1.0
675 599 1.0
675 606 1.0
675 613 1.0
675 620 1.0
675 627 1.0
675 634 1.0
675 641 1.0
675 648 1.0
675 655 1.0
675 662 1.0
675 669 1.0
675 676 1.0
676 584 1.0
676 591 1.0
676 598 1.0
676 605 1.0
676 612 1.0
676 619 1.0
676 626 1.0
676 633 1.0
676 640 1.0
676 647 1.0
676 654 1.0
676 661 1.0
676 668 1.0
676 675 1.0
676 682 1.0
676 689 1.0
677 597 1.0
677 604 1.0
677 611 1.0
677 618 1.0
677 625 1.0
677 632 1.0
677 639 1.0
677 646 1.0
677 653 1.0
677 660 1.0
677 667 1.0
677 674 1.0
677 681 1.0
677 688 1.0
677 695 1.0
677 702 1.0
678 610 1.0
678 617 1.0
678 624 1.0
678 631 1.0
678 638 1.0
678 645 1.0
678 652 1.0
678 659 1.0
678 666 1.0
678 673 1.0
678 680 1.0
678 687 1.0
678 694 1.0
678 701 1.0
678 708 1.0
678 715 1.0
679 623 1.0
679 630 1.0
679 637 1.0
679 644 1.0
679 651 1.0
679 658 1.0
679 665 1.0
679 672 1.0
679 679 1.0
679 686 1.0
679 693 1.0
679 700 1.0
679 707 1.0
679 714 1.0
679 721 1.0
679 728 1.0
680 636 1.0
680 643 1.0
680 650 1.0
680 657 1.0
680 664 1.0
680 671 1.0
680 678 1.0
680 685 1.0
680 692 1.0
680 699 1.0
680 706 1.0
680 713 1.0
680 720 1.0
680 727 1.0
680 734 1.0
680 741 1.0
681 649 1.0
681 656 1.0
681 663 1.0
681 670 1.0
681 677 1.0
681 684 1.0
681 691 1.0
681 698 1.0
681 705 1.0
681 712 1.0
681 719 1.0
681 726 1.0
681 733 1.0
681 740 1.0
681 747 1.0
681 754 1.0
682 662 1.0
682 669 1.0
682 676 1.0
682 683 1.0
682 690 1.0
682 697 1.0
682 704 1.0
682 711 1.0
682 718 1.0
682 725 1.0
682 732 1.0
682 739 1.0
682 746 1.0
682 753 1.0
682 760 1.0
682 767 1.0
683 675 1.0
683 682 1.0
683 689 1.0
683 696 1.0
683 703 1.0
683 710 1.0
683 717 1.0
683 724 1.0
683 731 1.0
683 738 1.0
683 745 1.0
683 752 1.0
683 759 1.0
683 766 1.0
683 773 1.0
683 780 1.0
684 688 1.0
684 695 1.0
684 702 1.0
684 709 1.0
684 716 1.0
684 723 1.0
684 730 1.0
684 737 1.0
684 744 1.0
684 751 1.0
684 758 1.0
684 765 1.0
684 772 1.0
684 779 1.0
684 786 1.0
684 793 1.0
685 701 1.0
685 708 1.0
685 715 1.0
685 722 1.0
685 729 1.0
685 736 1.0
685 743 1.0
685 750 1.0
685 757 1.0
685 764 1.0
685 771 1.0
685 778 1.0
685 785 1.0
685 792 1.0
685 799 1.0
685 806 1.0
686 714 1.0
686 721 1.0
686 728 1.0
686 735 1.0
686 742 1.0
686 749 1.0
686 756 1.0
686 763 1.0
686 770 1.0
686 777 1.0
686 784 1.0
686 791 1.0
686 798 1.0
686 805 1.0
686 812 1.0
686 819 1.0
687 727 1.0
687 734 1.0
687 741 1.0
687 748 1.0
687 755 1.0
687 762 1.0
687 769 1.0
687 776 1.0
687 783 1.0
687 790 1.0
687 797 1.0
687 804 1.0
687 811 1.0
687 818 1.0
687 825 1.0
687 832 1.0
688 740 1.0
688 747 1.0
688 754 1.0
688 761 1.0
688 768 1.0
688 775 1.0
688 782 1.0
688 789 1.0
688 796 1.0
688 803 1.0
688 810 1.0
688 817 1.0
688 824 1.0
688 831 1.0
688 838 1.0
688 845 1.0
689 753 1.0
689 760 1.0
689 767 1.0
689 774 1.0
689 781 1.0
689 788 1.0
689 795 1.0
689 802 1.0
689 809 1.0
689 816 1.0
689 823 1.0
689 830 1.0
689 837 1.0
689 844 1.0
689 851 1.0
689 858 1.0
690 766 1.0
690 773 1.0
690 780 1.0
690 787 1.0
690 794 1.0
690 801 1.0
690 808 1.0
690 815 1.0
690 822 1.0
690 829 1.0
690 836 1.0
690 843 1.0
690 850 1.0
690 857 1.0
690 864 1.0
690 871 1.0
691 779 1.0
691 786 1.0
691 793 1.0
691 800 1.0
691 807 1.0
691 814 1.0
691 821 1.0
691 828 1.0
691 835 1.0
691 842 1.0
691 849 1.0
691 856 1.0
691 863 1.0
691 870 1.0
691 877 1.0
691 884 1.0
692 792 1.0
692 799 1.0
692 806 1.0
692 813 1.0
692 820 1.0
692 827 1.0
692 834 1.0
692 841 1.0
692 848 1.0
692 855 1.0
692 862 1.0
692 869 1.0
692 876 1.0
692 883 1.0
692 890 1.0
692 897 1.0
693 805 1.0
693 812 1.0
693 819 1.0
693 826 1.0
693 833 1.0
693 840 1.0
693 847 1.0
693 854 1.0
693 861 1.0
693 868 1.0
693 875 1.0
693 882 1.0
693 889 1.0
693 896 1.0
693 903 1.0
693 910 1.0
694 818 1.0
694 825 1.0
694 832 1.0
694 839 1.0
694 846 1.0
694 853 1.0
694 860 1.0
694 867 1.0
694 874 1.0
694 881 1.0
694 888 1.0
694 895 1.0
694 902 1.0
694 909 1.0
694 916 1.0
694 923 1.0
695 831 1.0
695 838 1.0
695 845 1.0
695 852 1.0
695 859 1.0
695 866 1.0
695 873 1.0
695 880 1.0
695 887 1.0
695 894 1.0
695 901 1.0
695 908 1.0
695 915 1.0
695 922 1.0
695 929 1.0
695 936 1.0
696 844 1.0
696 851 1.0
696 858 1.0
696 865 1.0
696 872 1.0
696 879 1.0
696 886 1.0
696 893 1.0
696 900 1.0
696 907 1.0
696 914 1.0
696 921 1.0
696 928 1.0
696 935 1.0
696 942 1.0
696 949 1.0
697 857 1.0
697 864 1.0
697 871 1.0
697 878 1.0
697 885 1.0
697 892 1.0
697 899 1.0
697 906 1.0
697 913 1.0
697 920 1.0
697 927 1.0
697 934 1.0
697 941 1.0
697 948 1.0
697 955 1.0
697 962 1.0
698 870 1.0
698 877 1.0
698 884 1.0
698 891 1.0
698 898 1.0
698 905 1.0
698 912 1.0
698 919 1.0
698 926 1.0
698 933 1.0
698 940 1.0
698 947 1.0
698 954 1.0
698 961 1.0
698 968 1.0
698 975 1.0
699 883 1.0
699 890 1.0
699 897 1.0
699 904 1.0
699 911 1.0
699 918 1.0
699 925 1.0
699 932 1.0
699 939 1.0
699 946 1.0
699 953 1.0
699 960 1.0
699 967 1.0
699 974 1.0
699 981 1.0
699 988 1.0
700 896 1.0
700 903 1.0
700 910 1.0
700 917 1.0
700 924 1.0
700 931 1.0
700 938 1.0
700 945 1.0
700 952 1.0
700 959 1.0
700 966 1.0
700 973 1.0
700 980 1.0
700 987 1.0
700 994 1.0
700 1001 1.0
701 909 1.0
701 916 1.0
701 923 1.0
701 930 1.0
701 937 1.0
701 944 1.0
701 951 1.0
701 958 1.0
701 965 1.0
701 972 1.0
701 979 1.0
701 986 1.0
701 993 1.0
701 1000 1.0
701 1007 1.0
701 1014 1.0
702 922 1.0
702 929 1.0
702 936 1.0
702 943 1.0
702 950 1.0
702 957 1.0
702 964 1.0
702 971 1.0
702 978 1.0
702 985 1.0
702 992 1.0
702 999 1.0
702 1006 1.0
702 1013 1.0
702 1020 1.0
702 3 1.0
703 935 1.0
703 942 1.0
703 949 1.0
703 956 1.0
703 963 1.0
703 970 1.0
703 977 1.0
703 984 1.0
703 991 1.0
703 998 1.0
703 1005 1.0
703 1012 1.0
703 1019 1.0
703 2 1.0
703 9 1.0
703 16 1.0
704 948 1.0
704 955 1.0
704 962 1.0
704 969 1.0
704 976 1.0
704 983 1.0
704 990 1.0
704 997 1.0
704 1004 1.0
704 1011 1.0
704 1018 1.0
704 1 1.0
704 8 1.0
704 15 1.0
704 22 1.0
704 29 1.0
705 961 1.0
705 968 1.0
705 975 1.0
705 982 1.0
705 989 1.0
705 996 1.0
705 1003 1.0
705 1010 1.0
705 1017 1.0
705 1024 1.0
705 7 1.0
705 14 1.0
705 21 1.0
705 28 1.0
705 35 1.0
705 42 1.0
706 974 1.0
706 981 1.0
706 988 1.0
706 995 1.0
706 1002 1.0
706 1009 1.0
706 1016 1.0
706 1023 1.0
706 6 1.0
706 13 1.0
706 20 1.0
706 27 1.0
706 34 1.0
706 41 1.0
706 48 1.0
706 55 1.0
707 987 1.0
707 994 1.0
707 1001 1.0
707 1008 1.0
707 1015 1.0
707 1022 1.0
707 5 1.0
707 12 1.0
707 19 1.0
707 26 1.0
707 33 1.0
707 40 1.0
707 47 1.0
707 54 1.0
707 61 1.0
707 68 1.0
708 1000 1.0
708 1007 1.0
708 1014 1.0
708 1021 1.0
708 4 1.0
708 11 1.0
708 18 1.0
708 25 1.0
708 32 1.0
708 39 1.0
708 46 1.0
708 53 1.0
708 60 1.0
708 67 1.0
708 74 1.0
708 81 1.0
709 1013 1.0
709 1020 1.0
709 3 1.0
709 10 1.0
709 17 1.0
709 24 1.0
709 31 1.0
709 38 1.0
709 45 1.0
709 52 1.0
709 59 1.0
709 66 1.0
709 73 1.0
709 80 1.0
709 87 1.0
709 94 1.0
710 2 1.0
710 9 1.0
710 16 1.0
710 23 1.0
710 30 1.0
710 37 1.0
710 44 1.0
710 51 1.0
710 58 1.0
710 65 1.0
710 72 1.0
710 79 1.0
710 86 1.0
710 93 1.0
710 100 1.0
710 107 1.0
711 15 1.0
711 22 1.0
711 29 1.0
711 36 1.0
711 43 1.0
711 50 1.0
711 57 1.0
711 64 1.0
711 71 1.0
711 78 1.0
711 85 1.0
711 92 1.0
711 99 1.0
711 106 1.0
711 113 1.0
711 120 1.0
712 28 1.0
712 35 1.0
712 42 1.0
712 49 1.0
712 56 1.0
712 63 1.0
712 70 1.0
712 77 1.0
712 84 1.0
712 91 1.0
712 98 1.0
712 105 1.0
712 112 1.0
712 119 1.0
712 126 1.0
712 133 1.0
713 41 1.0
713 48 1.0
713 55 1.0
713 62 1.0
713 69 1.0
713 76 1.0
713 83 1.0
713 90 1.0
713 97 1.0
713 104 1.0
713 111 1.0
713 118 1.0
713 125 1.0
713 132 1.0
713 139 1.0
713 146 1.0
714 54 1.0
714 61 1.0
714 68 1.0
714 75 1.0
714 82 1.0
714 89 1.0
714 96 1.0
714 103 1.0
714 110 1.0
714 117 1.0
714 124 1.0
714 131 1.0
714 138 1.0
714 145 1.0
714 152 1.0
714 159 1.0
715 67 1.0
715 74 1.0
715 81 1.0
715 88 1.0
715 95 1.0
715 102 1.0
715 109 1.0
715 116 1.0
715 123 1.0
715 130 1.0
715 137 1.0
715 144 1.0
715 151 1.0
715 158 1.0
715 165 1.0
715 172 1.0
716 80 1.0
716 87 1.0
716 94 1.0
716 101 1.0
716 108 1.0
716 115 1.0
716 122 1.0
716 129 1.0
716 136 1.0
716 143 1.0
716 150 1.0
716 157 1.0
716 164 1.0
716 171 1.0
716 178 1.0
716 185 1.0
717 93 1.0
717 100 1.0
717 107 1.0
717 114 1.0
717 121 1.0
717 128 1.0
717 135 1.0
717 142 1.0
717 149 1.0
717 156 1.0
717 163 1.0
717 170 1.0
717 177 1.0
717 184 1.0
717 191 1.0
717 198 1.0
718 106 1.0
718 113 1.0
718 120 1.0
718 127 1.0
718 134 1.0
718 141 1.0
718 148 1.0
718 155 1.0
718 162 1.0
718 169 1.0
718 176 1.0
718 183 1.0
718 190 1.0
718 197 1.0
718 204 1.0
718 211 1.0
719 119 1.0
719 126 1.0
719 133 1.0
719 140 1.0
719 147 1.0
719 154 1.0
719 161 1.0
719 168 1.0
719 175 1.0
719 182 1.0
719 189 1.0
719 196 1.0
719 203 1.0
719 210 1.0
719 217 1.0
719 224 1.0
720 132 1.0
720 139 1.0
720 146 1.0
720 153 1.0
720 160 1.0
720 167 1.0
720 174 1.0
720 181 1.0
720 188 1.0
720 195 1.0
720 202 1.0
720 209 1.0
720 216 1.0
720 223 1.0
720 230 1.0
720 237 1.0
721 145 1.0
721 152 1.0
721 159 1.0
721 166 1.0
721 173 1.0
721 180 1.0
721 187 1.0
721 194 1.0
721 201 1.0
721 208 1.0
721 215 1.0
721 222 1.0
721 229 1.0
721 236 1.0
721 243 1.0
721 250 1.0
722 158 1.0
722 165 1.0
722 172 1.0
722 179 1.0
722 186 1.0
722 193 1.0
722 200 1.0
722 207 1.0
722 214 1.0
722 221 1.0
722 228 1.0
722 235 1.0
722 242 1.0
722 249 1.0
722 256 1.0
722 263 1.0
723 171 1.0
723 178 1.0
723 185 1.0
723 192 1.0
723 199 1.0
723 206 1.0
723 213 1.0
723 220 1.0
723 227 1.0
723 234 1.0
723 241 1.0
723 248 1.0
723 255 1.0
723 262 1.0
723 269 1.0
723 276 1.0
724 184 1.0
724 191 1.0
724 198 1.0
724 205 1.0
724 212 1.0
724 219 1.0
724 226 1.0
724 233 1.0
724 240 1.0
724 247 1.0
724 254 1.0
724 261 1.0
724 268 1.0
724 275 1.0
724 282 1.0
724 289 1.0
725 197 1.0
725 204 1.0
725 211 1.0
725 218 1.0
725 225 1.0
725 232 1.0
725 239 1.0
725 246 1.0
725 253 1.0
725 260 1.0
725 267 1.0
725 274 1.0
725 281 1.0
725 288 1.0
725 295 1.0
725 302 1.0
726 210 1.0
726 217 1.0
726 224 1.0
726 231 1.0
726 238 1.0
726 245 1.0
726 252 1.0
726 259 1.0
726 266 1.0
726 273 1.0
726 280 1.0
726 287 1.0
726 294 1.0
726 301 1.0
726 308 1.0
726 315 1.0
727 223 1.0
727 230 1.0
727 237 1.0
727 244 1.0
727 251 1.0
727 258 1.0
727 265 1.0
727 272 1.0
727 279 1.0
727 286 1.0
727 293 1.0
727 300 1.0
727 307 1.0
727 314 1.0
727 321 1.0
727 328 1.0
728 236 1.0
728 243 1.0
728 250 1.0
728 257 1.0
728 264 1.0
728 271 1.0
728 278 1.0
728 285 1.0
728 292 1.0
728 299 1.0
728 306 1.0
728 313 1.0
728 320 1.0
728 327 1.0
728 334 1.0
728 341 1.0
729 249 1.0
729 256 1.0
729 263 1.0
729 270 1.0
729 277 1.0
729 284 1.0
729 291 1.0
729 298 1.0
729 305 1.0
729 312 1.0
729 319 1.0
729 326 1.0
729 333 1.0
729 340 1.0
729 347 1.0
729 354 1.0
730 262 1.0
730 269 1.0
730 276 1.0
730 283 1.0
730 290 1.0
730 297 1.0
730 304 1.0
730 311 1.0
730 318 1.0
730 325 1.0
730 332 1.0
730 339 1.0
730 346 1.0
730 353 1.0
730 360 1.0
730 367 1.0
731 275 1.0
731 282 1.0
731 289 1.0
731 296 1.0
731 303 1.0
731 310 1.0
731 317 1.0
731 324 1.0
731 331 1.0
731 338 1.0
731 345 1.0
731 352 1.0
731 359 1.0
731 366 1.0
731 373 1.0
731 380 1.0
732 288 1.0
732 295 1.0
732 302 1.0
732 309 1.0
732 316 1.0
732 323 1.0
732 330 1.0
732 337 1.0
732 344 1.0
732 351 1.0
732 358 1.0
732 365 1.0
732 372 1.0
732 379 1.0
732 386 1.0
732 393 1.0
733 301 1.0
733 308 1.0
733 315 1.0
733 322 1.0
733 329 1.0
733 336 1.0
733 343 1.0
733 350 1.0
733 357 1.0
733 364 1.0
733 371 1.0
733 378 1.0
733 385 1.0
733 392 1.0
733 399 1.0
733 406 1.0
734 314 1.0
734 321 1.0
734 328 1.0
734 335 1.0
734 342 1.0
734 349 1.0
734 356 1.0
734 363 1.0
734 370 1.0
734 377 1.0
734 384 1.0
734 391 1.0
734 398 1.0
734 405 1.0
734 412 1.0
734 419 1.0
735 327 1.0
735 334 1.0
735 341 1.0
735 348 1.0
735 355 1.0
735 362 1.0
735 369 1.0
735 376 1.0
735 383 1.0
735 390 1.0
735 397 1.0
735 404 1.0
735 411 1.0
735 418 1.0
735 425 1.0
735 432 1.0
736 340 1.0
736 347 1.0
736 354 1.0
736 361 1.0
736 368 1.0
736 375 1.0
736 382 1.0
736 389 1.0
736 396 1.0
736 403 1.0
736 410 1.0
736 417 1.0
736 424 1.0
736 431 1.0
736 438 1.0
736 445 1.0
737 353 1.0
737 360 1.0
737 367 1.0
737 374 1.0
737 381 1.0
737 388 1.0
737 395 1.0
737 402 1.0
737 409 1.0
737 416 1.0
737 423 1.0
737 430 1.0
737 437 1.0
737 444 1.0
737 451 1.0
737 458 1.0
738 366 1.0
738 373 1.0
738 380 1.0
738 387 1.0
738 394 1.0
738 401 1.0
738 408 1.0
738 415 1.0
738 422 1.0
738 429 1.0
738 436 1.0
738 443 1.0
738 450 1.0
738 457 1.0
738 464 1.0
738 471 1.0
739 379 1.0
739 386 1.0
739 393 1.0
739 400 1.0
739 407 1.0
739 414 1.0
739 421 1.0
739 428 1.0
739 435 1.0
739 442 1.0
739 449 1.0
739 456 1.0
739 463 1.0
739 470 1.0
739 477 1.0
739 484 1.0
740 392 1.0
740 399 1.0
740 406 1.0
740 413 1.0
740 420 1.0
740 427 1.0
740 434 1.0
740 441 1.0
740 448 1.0
740 455 1.0
740 462 1.0
740 469 1.0
740 476 1.0
740 483 1.0
740 490 1.0
740 497 1.0
741 405 1.0
741 412 1.0
741 419 1.0
741 426 1.0
741 433 1.0
741 440 1.0
741 447 1.0
741 454 1.0
741 461 1.0
741 468 1.0
741 475 1.0
741 482 1.0
741 489 1.0
741 496 1.0
741 503 1.0
741 510 1.0
742 418 1.0
742 425 1.0
742 432 1.0
742 439 1.0
742 446 1.0
742 453 1.0
742 460 1.0
742 467 1.0
742 474 1.0
742 481 1.0
742 488 1.0
742 495 1.0
742 502 1.0
742 509 1.0
742 516 1.0
742 523 1.0
743 431 1.0
743 438 1.0
743 445 1.0
743 452 1.0
743 459 1.0
743 466 1.0
743 473 1.0
743 480 1.0
743 487 1.0
743 494 1.0
743 501 1.0
743 508 1.0
743 515 1.0
743 522 1.0
743 529 1.0
743 536 1.0
744 444 1.0
744 451 1.0
744 458 1.0
744 465 1.0
744 472 1.0
744 479 1.0
744 486 1.0
744 493 1.0
744 500 1.0
744 507 1.0
744 514 1.0
744 521 1.0
744 528 1.0
744 535 1.0
744 542 1.0
744 549 1.0
745 457 1.0
745 464 1.0
745 471 1.0
745 478 1.0
745 485 1.0
745 492 1.0
745 499 1.0
745 506 1.0
745 513 1.0
745 520 1.0
745 527 1.0
745 534 1.0
745 541 1.0
745 548 1.0
745 555 1.0
745 562 1.0
746 470 1.0
746 477 1.0
746 484 1.0
746 491 1.0
746 498 1.0
746 505 1.0
746 512 1.0
746 519 1.0
746 526 1.0
746 533 1.0
746 540 1.0
746 547 1.0
746 554 1.0
746 561 1.0
746 568 1.0
746 575 1.0
747 483 1.0
747 490 1.0
747 497 1.0
747 504 1.0
747 511 1.0
747 518 1.0
747 525 1.0
747 532 1.0
747 539 1.0
747 546 1.0
747 553 1.0
747 560 1.0
747 567 1.0
747 574 1.0
747 581 1.0
747 588 1.0
748 496 1.0
748 503 1.0
748 510 1.0
748 517 1.0
748 524 1.0
748 531 1.0
748 538 1.0
748 545 1.0
748 552 1.0
748 559 1.0
748 566 1.0
748 573 1.0
748 580 1.0
748 587 1.0
748 594 1.0
748 601 1.0
749 509 1.0
749 516 1.0
749 523 1.0
749 530 1.0
749 537 1.0
749 544 1.0
749 551 1.0
749 558 1.0
749 565 1.0
749 572 1.0
749 579 1.0
749 586 1.0
749 593 1.0
749 600 1.0
749 607 1.0
749 614 1.0
750 522 1.0
750 529 1.0
750 536 1.0
750 543 1.0
750 550 1.0
750 557 1.0
750 564 1.0
750 571 1.0
750 578 1.0
750 585 1.0
750 592 1.0
750 599 1.0
750 606 1.0
750 613 1.0
750 620 1.0
750 627 1.0
751 535 1.0
751 542 1.0
751 549 1.0
751 556 1.0
751 563 1.0
751 570 1.0
751 577 1.0
751 584 1.0
751 591 1.0
751 598 1.0
751 605 1.0
751 612 1.0
751 619 1.0
751 626 1.0
751 633 1.0
751 640 1.0
752 548 1.0
752 555 1.0
752 562 1.0
752 569 1.0
752 576 1.0
752 583 1.0
752 590 1.0
752 597 1.0
752 604 1.0
752 611 1.0
752 618 1.0
752 625 1.0
752 632 1.0
752 639 1.0
752 646 1.0
752 653 1.0
753 561 1.0
753 568 1.0
753 575 1.0
753 582 1.0
753 589 1.0
753 596 1.0
753 603 1.0
753 610 1.0
753 617 1.0
753 624 1.0
753 631 1.0
753 638 1.0
753 645 1.0
753 652 1.0
753 659 1.0
753 666 1.0
754 574 1.0
754 581 1.0
754 588 1.0
754 595 1.0
754 602 1.0
754 609 1.0
754 616 1.0
754 623 1.0
754 630 1.0
754 637 1.0
754 644 1.0
754 651 1.0
754 658 1.0
754 665 1.0
754 672 1.0
754 679 1.0
755 587 1.0
755 594 1.0
755 601 1.0
755 608 1.0
755 615 1.0
755 622 1.0
755 629 1.0
755 636 1.0
755 643 1.0
755 650 1.0
755 657 1.0
755 664 1.0
755 671 1.0
755 678 1.0
755 685 1.0
755 692 1.0
756 600 1.0
756 607 1.0
756 614 1.0
756 621 1.0
756 628 1.0
756 635 1.0
756 642 1.0
756 649 1.0
756 656 1.0
756 663 1.0
756 670 1.0
756 677 1.0
756 684 1.0
756 691 1.0
756 698 1.0
756 705 1.0
757 613 1.0
757 620 1.0
757 627 1.0
757 634 1.0
757 641 1.0
757 648 1.0
757 655 1.0
757 662 1.0
757 669 1.0
757 676 1.0
757 683 1.0
757 690 1.0
757 697 1.0
757 704 1.0
757 711 1.0
757 718 1.0
758 626 1.0
758 633 1.0
758 640 1.0
758 647 1.0
758 654 1.0
758 661 1.0
758 668 1.0
758 675 1.0
758 682 1.0
758 689 1.0
758 696 1.0
758 703 1.0
758 710 1.0
758 717 1.0
758 724 1.0
758 731 1.0
759 639 1.0
759 646 1.0
759 653 1.0
759 660 1.0
759 667 1.0
759 674 1.0
759 681 1.0
759 688 1.0
759 695 1.0
759 702 1.0
759 709 1.0
759 716 1.0
759 723 1.0
759 730 1.0
759 737 1.0
759 744 1.0
760 652 1.0
760 659 1.0
760 666 1.0
760 673 1.0
760 680 1.0
760 687 1.0
760 694 1.0
760 701 1.0
760 708 1.0
760 715 1.0
760 722 1.0
760 729 1.0
760 736 1.0
760 743 1.0
760 750 1.0
760 757 1.0
761 665 1.0
761 672 1.0
761 679 1.0
761 686 1.0
761 693 1.0
761 700 1.0
761 707 1.0
761 714 1.0
761 721 1.0
761 728 1.0
761 735 1.0
761 742 1.0
761 749 1.0
761 756 1.0
761 763 1.0
761 770 1.0
762 678 1.0
762 685 1.0
762 692 1.0
762 699 1.0
762 706 1.0
762 713 1.0
762 720 1.0
762 727 1.0
762 734 1.0
762 741 1.0
762 748 1.0
762 755 1.0
762 762 1.0
762 769 1.0
762 776 1.0
762 783 1.0
763 691 1.0
763 698 1.0
763 705 1.0
763 712 1.0
763 719 1.0
763 726 1.0
763 733 1.0
763 740 1.0
763 747 1.0
763 754 1.0
763 761 1.0
763 768 1.0
763 775 1.0
763 782 1.0
763 789 1.0
763 796 1.0
764 704 1.0
764 711 1.0
764 718 1.0
764 725 1.0
764 732 1.0
764 739 1.0
764 746 1.0
764 753 1.0
764 760 1.0
764 767 1.0
764 774 1.0
764 781 1.0
764 788 1.0
764 795 1.0
764 802 1.0
764 809 1.0
765 717 1.0
765 724 1.0
765 731 1.0
765 738 1.0
765 745 1.0
765 752 1.0
765 759 1.0
765 766 1.0
765 773 1.0
765 780 1.0
765 787 1.0
765 794 1.0
765 801 1.0
765 808 1.0
765 815 1.0
765 822 1.0
766 730 1.0
766 737 1.0
766 744 1.0
766 751 1.0
766 758 1.0
766 765 1.0
766 772 1.0
766 779 1.0
766 786 1.0
766 793 1.0
766 800 1.0
766 807 1.0
766 814 1.0
766 821 1.0
766 828 1.0
766 835 1.0
767 743 1.0
767 750 1.0
767 757 1.0
767 764 1.0
767 771 1.0
767 778 1.0
767 785 1.0
767 792 1.0
767 799 1.0
767 806 1.0
767 813 1.0
767 820 1.0
767 827 1.0
767 834 1.0
767 841 1.0
767 848 1.0
768 756 1.0
768 763 1.0
768 770 1.0
768 777 1.0
768 784 1.0
768 791 1.0
768 798 1.0
768 805 1.0
768 812 1.0
768 819 1.0
768 826 1.0
768 833 1.0
768 840 1.0
768 847 1.0
768 854 1.0
768 861 1.0
769 769 1.0
769 776 1.0
769 783 1.0
769 790 1.0
769 797 1.0
769 804 1.0
769 811 1.0
769 818 1.0
769 825 1.0
769 832 1.0
769 839 1.0
769 846 1.0
769 853 1.0
769 860 1.0
769 867 1.0
769 874 1.0
770 782 1.0
770 789 1.0
770 796 1.0
770 803 1.0
770 810 1.0
770 817 1.0
770 824 1.0
770 831 1.0
770 838 1.0
770 845 1.0
770 852 1.0
770 859 1.0
770 866 1.0
770 873 1.0
770 880 1.0
770 887 1.0
771 795 1.0
771 802 1.0
771 809 1.0
771 816 1.0
771 823 1.0
771 830 1.0
771 837 1.0
771 844 1.0
771 851 1.0
771 858 1.0
771 865 1.0
771 872 1.0
771 879 1.0
771 886 1.0
771 893 1.0
771 900 1.0
772 808 1.0
772 815 1.0
772 822 1.0
772 829 1.0
772 836 1.0
772 843 1.0
772 850 1.0
772 857 1.0
772 864 1.0
772 871 1.0
772 878 1.0
772 885 1.0
772 892 1.0
772 899 1.0
772 906 1.0
772 913 1.0
773 821 1.0
773 828 1.0
773 835 1.0
773 842 1.0
773 849 1.0
773 856 1.0
773 863 1.0
773 870 1.0
773 877 1.0
773 884 1.0
773 891 1.0
773 898 1.0
773 905 1.0
773 912 1.0
773 919 1.0
773 926 1.0
774 834 1.0
774 841 1.0
774 848 1.0
774 855 1.0
774 862 1.0
774 869 1.0
774 876 1.0
774 883 1.0
774 890 1.0
774 897 1.0
774 904 1.0
774 911 1.0
774 918 1.0
774 925 1.0
774 932 1.0
774 939 1.0
775 847 1.0
775 854 1.0
775 861 1.0
775 868 1.0
775 875 1.0
775 882 1.0
775 889 1.0
775 896 1.0
775 903 1.0
775 910 1.0
775 917 1.0
775 924 1.0
775 931 1.0
775 938 1.0
775 945 1.0
775 952 1.0
776 860 1.0
776 867 1.0
776 874 1.0
776 881 1.0
776 888 1.0
776 895 1.0
776 902 1.0
776 909 1.0
776 916 1.0
776 923 1.0
776 930 1.0
776 937 1.0
776 944 1.0
776 951 1.0
776 958 1.0
776 965 1.0
777 873 1.0
777 880 1.0
777 887 1.0
777 894 1.0
777 901 1.0
777 908 1.0
777 915 1.0
777 922 1.0
777 929 1.0
777 936 1.0
777 943 1.0
777 950 1.0
777 957 1.0
777 964 1.0
777 971 1.0
777 978 1.0
778 886 1.0
778 893 1.0
778 900 1.0
778 907 1.0
778 914 1.0
778 921 1.0
778 928 1.0
778 935 1.0
778 942 1.0
778 949 1.0
778 956 1.0
778 963 1.0
778 970 1.0
778 977 1.0
778 984 1.0
778 991 1.0
779 899 1.0
779 906 1.0
779 913 1.0
779 920 1.0
779 927 1.0
779 934 1.0
779 941 1.0
779 948 1.0
779 955 1.0
779 962 1.0
779 969 1.0
779 976 1.0
779 983 1.0
779 990 1.0
779 997 1.0
779 1004 1.0
780 912 1.0
780 919 1.0
780 926 1.0
780 933 1.0
780 940 1.0
780 947 1.0
780 954 1.0
780 961 1.0
780 968 1.0
780 975 1.0
780 982 1.0
780 989 1.0
780 996 1.0
780 1003 1.0
780 1010 1.0
780 1017 1.0
781 925 1.0
781 932 1.0
781 939 1.0
781 946 1.0
781 953 1.0
781 960 1.0
781 967 1.0
781 974 1.0
781 981 1.0
781 988 1.0
781 995 1.0
781 1002 1.0
781 1009 1.0
781 1016 1.0
781 1023 1.0
781 6 1.0
782 938 1.0
782 945 1.0
782 952 1.0
782 959 1.0
782 966 1.0
782 973 1.0
782 980 1.0
782 987 1.0
782 994 1.0
782 1001 1.0
782 1008 1.0
782 1015 1.0
782 1022 1.0
782 5 1.0
782 12 1.0
782 19 1.0
783 951 1.0
783 958 1.0
783 965 1.0
783 972 1.0
783 979 1.0
783 986 1.0
783 993 1.0
783 1000 1.0
783 1007 1.0
783 1014 1.0
783 1021 1.0
783 4 1.0
783 11 1.0
783 18 1.0
783 25 1.0
783 32 1.0
784 964 1.0
784 971 1.0
784 978 1.0
784 985 1.0
784 992 1.0
784 999 1.0
784 1006 1.0
784 1013 1.0
784 1020 1.0
784 3 1.0
784 10 1.0
784 17 1.0
784 24 1.0
784 31 1.0
784 38 1.0
784 45 1.0
785 977 1.0
785 984 1.0
785 991 1.0
785 998 1.0
785 1005 1.0
785 1012 1.0
785 1019 1.0
785 2 1.0
785 9 1.0
785 16 1.0
785 23 1.0
785 30 1.0
785 37 1.0
785 44 1.0
785 51 1.0
785 58 1.0
786 990 1.0
786 997 1.0
786 1004 1.0
786 1011 1.0
786 1018 1.0
786 1 1.0
786 8 1.0
786 15 1.0
786 22 1.0
786 29 1.0
786 36 1.0
786 43 1.0
786 50 1.0
786 57 1.0
786 64 1.0
786 71 1.0
787 1003 1.0
787 1010 1.0
787 1017 1.0
787 1024 1.0
787 7 1.0
787 14 1.0
787 21 1.0
787 28 1.0
787 35 1.0
787 42 1.0
787 49 1.0
787 56 1.0
787 63 1.0
787 70 1.0
787 77 1.0
787 84 1.0
788 1016 1.0
788 1023 1.0
788 6 1.0
788 13 1.0
788 20 1.0
788 27 1.0
788 34 1.0
788 41 1.0
788 48 1.0
788 55 1.0
788 62 1.0
788 69 1.0
788 76 1.0
788 83 1.0
788 90 1.0
788 97 1.0
789 5 1.0
789 12 1.0
789 19 1.0
789 26 1.0
789 33 1.0
789 40 1.0
789 47 1.0
789 54 1.0
789 61 1.0
789 68 1.0
789 75 1.0
789 82 1.0
789 89 1.0
789 96 1.0
789 103 1.0
789 110 1.0
790 18 1.0
790 25 1.0
790 32 1.0
790 39 1.0
790 46 1.0
790 53 1.0
790 60 1.0
790 67 1.0
790 74 1.0
790 81 1.0
790 88 1.0
790 95 1.0
790 102 1.0
790 109 1.0
790 116 1.0
790 123 1.0
791 31 1.0
791 38 1.0
791 45 1.0
791 52 1.0
791 59 1.0
791 66 1.0
791 73 1.0
791 80 1.0
791 87 1.0
791 94 1.0
791 101 1.0
791 108 1.0
791 115 1.0
791 122 1.0
791 129 1.0
791 136 1.0
792 44 1.0
792 51 1.0
792 58 1.0
792 65 1.0
792 72 1.0
792 79 1.0
792 86 1.0
792 93 1.0
792 100 1.0
792 107 1.0
792 114 1.0
792 121 1.0
792 128 1.0
792 135 1.0
792 142 1.0
792 149 1.0
793 57 1.0
793 64 1.0
793 71 1.0
793 78 1.0
793 85 1.0
793 92 1.0
793 99 1.0
793 106 1.0
793 113 1.0
793 120 1.0
793 127 1.0
793 134 1.0
793 141 1.0
793 148 1.0
793 155 1.0
793 162 1.0
794 70 1.0
794 77 1.0
794 84 1.0
794 91 1.0
794 98 1.0
794 105 1.0
794 112 1.0
794 119 1.0
794 126 1.0
794 133 1.0
794 140 1.0
794 147 1.0
794 154 1.0
794 161 1.0
794 168 1.0
794 175 1.0
795 83 1.0
795 90 1.0
795 97 1.0
795 104 1.0
795 111 1.0
795 118 1.0
795 125 1.0
795 132 1.0
795 139 1.0
795 146 1.0
795 153 1.0
795 160 1.0
795 167 1.0
795 174 1.0
795 181 1.0
795 188 1.0
796 96 1.0
796 103 1.0
796 110 1.0
796 117 1.0
796 124 1.0
796 131 1.0
796 138 1.0
796 145 1.0
796 152 1.0
796 159 1.0
796 166 1.0
796 173 1.0
796 180 1.0
796 187 1.0
796 194 1.0
796 201 1.0
797 109 1.0
797 116 1.0
797 123 1.0
797 130 1.0
797 137 1.0
797 144 1.0
797 151 1.0
797 158 1.0
797 165 1.0
797 172 1.0
797 179 1.0
797 186 1.0
797 193 1.0
797 200 1.0
797 207 1.0
797 214 1.0
798 122 1.0
798 129 1.0
798 136 1.0
798 143 1.0
798 150 1.0
798 157 1.0
798 164 1.0
798 171 1.0
798 178 1.0
798 185 1.0
798 192 1.0
798 199 1.0
798 206 1.0
798 213 1.0
798 220 1.0
798 227 1.0
799 135 1.0
799 142 1.0
799 149 1.0
799 156 1.0
799 163 1.0
799 170 1.0
799 177 1.0
799 184 1.0
799 191 1.0
799 198 1.0
799 205 1.0
799 212 1.0
799 219 1.0
799 226 1.0
799 233 1.0
799 240 1.0
800 148 1.0
800 155 1.0
800 162 1.0
800 169 1.0
800 176 1.0
800 183 1.0
800 190 1.0
800 197 1.0
800 204 1.0
800 211 1.0
800 218 1.0
800 225 1.0
800 232 1.0
800 239 1.0
800 246 1.0
800 253 1.0
801 161 1.0
801 168 1.0
801 175 1.0
801 182 1.0
801 189 1.0
801 196 1.0
801 203 1.0
801 210 1.0
801 217 1.0
801 224 1.0
801 231 1.0
801 238 1.0
801 245 1.0
801 252 1.0
801 259 1.0
801 266 1.0
802 174 1.0
802 181 1.0
802 188 1.0
802 195 1.0
802 202 1.0
802 209 1.0
802 216 1.0
802 223 1.0
802 230 1.0
802 237 1.0
802 244 1.0
802 251 1.0
802 258 1.0
802 265 1.0
802 272 1.0
802 279 1.0
803 187 1.0
803 194 1.0
803 201 1.0
803 208 1.0
803 215 1.0
803 222 1.0
803 229 1.0
803 236 1.0
803 243 1.0
803 250 1.0
803 257 1.0
803 264 1.0
803 271 1.0
803 278 1.0
803 285 1.0
803 292 1.0
804 200 1.0
804 207 1.0
804 214 1.0
804 221 1.0
804 228 1.0
804 235 1.0
804 242 1.0
804 249 1.0
804 256 1.0
804 263 1.0
804 270 1.0
804 277 1.0
804 284 1.0
804 291 1.0
804 298 1.0
804 305 1.0
805 213 1.0
805 220 1.0
805 227 1.0
805 234 1.0
805 241 1.0
805 248 1.0
805 255 1.0
805 262 1.0
805 269 1.0
805 276 1.0
805 283 1.0
805 290 1.0
805 297 1.0
805 304 1.0
805 311 1.0
805 318 1.0
806 226 1.0
806 233 1.0
806 240 1.0
806 247 1.0
806 254 1.0
806 261 1.0
806 268 1.0
806 275 1.0
806 282 1.0
806 289 1.0
806 296 1.0
806 303 1.0
806 310 1.0
806 317 1.0
806 324 1.0
806 331 1.0
807 239 1.0
807 246 1.0
807 253 1.0
807 260 1.0
807 267 1.0
807 274 1.0
807 281 1.0
807 288 1.0
807 295 1.0
807 302 1.0
807 309 1.0
807 316 1.0
807 323 1.0
807 330 1.0
807 337 1.0
807 344 1.0
808 252 1.0
808 259 1.0
808 266 1.0
808 273 1.0
808 280 1.0
808 287 1.0
808 294 1.0
808 301 1.0
808 308 1.0
808 315 1.0
808 322 1.0
808 329 1.0
808 336 1.0
808 343 1.0
808 350 1.0
808 357 1.0
809 265 1.0
809 272 1.0
809 279 1.0
809 286 1.0
809 293 1.0
809 300 1.0
809 307 1.0
809 314 1.0
809 321 1.0
809 328 1.0
809 335 1.0
809 342 1.0
809 349 1.0
809 356 1.0
809 363 1.0
809 370 1.0
810 278 1.0
810 285 1.0
810 292 1.0
810 299 1.0
810 306 1.0
810 313 1.0
810 320 1.0
810 327 1.0
810 334 1.0
810 341 1.0
810 348 1.0
810 355 1.0
810 362 1.0
810 369 1.0
810 376 1.0
810 383 1.0
811 291 1.0
811 298 1.0
811 305 1.0
811 312 1.0
811 319 1.0
811 326 1.0
811 333 1.0
811 340 1.0
811 347 1.0
811 354 1.0
811 361 1.0
811 368 1.0
811 375 1.0
811 382 1.0
811 389 1.0
811 396 1.0
812 304 1.0
812 311 1.0
812 318 1.0
812 325 1.0
812 332 1.0
812 339 1.0
812 346 1.0
812 353 1.0
812 360 1.0
812 367 1.0
812 374 1.0
812 381 1.0
812 388 1.0
812 395 1.0
812 402 1.0
812 409 1.0
813 317 1.0
813 324 1.0
813 331 1.0
813 338 1.0
813 345 1.0
813 352 1.0
813 359 1.0
813 366 1.0
813 373 1.0
813 380 1.0
813 387 1.0
813 394 1.0
813 401 1.0
813 408 1.0
813 415 1.0
813 422 1.0
814 330 1.0
814 337 1.0
814 344 1.0
814 351 1.0
814 358 1.0
814 365 1.0
814 372 1.0
814 379 1.0
814 386 1.0
814 393 1.0
814 400 1.0
814 407 1.0
814 414 1.0
814 421 1.0
814 428 1.0
814 435 1.0
815 343 1.0
815 350 1.0
815 357 1.0
815 364 1.0
815 371 1.0
815 378 1.0
815 385 1.0
815 392 1.0
815 399 1.0
815 406 1.0
815 413 1.0
815 420 1.0
815 427 1.0
815 434 1.0
815 441 1.0
815 448 1.0
816 356 1.0
816 363 1.0
816 370 1.0
816 377 1.0
816 384 1.0
816 391 1.0
816 398 1.0
816 405 1.0
816 412 1.0
816 419 1.0
816 426 1.0
816 433 1.0
816 440 1.0
816 447 1.0
816 454 1.0
816 461 1.0
817 369 1.0
817 376 1.0
817 383 1.0
817 390 1.0
817 397 1.0
817 404 1.0
817 411 1.0
817 418 1.0
817 425 1.0
817 432 1.0
817 439 1.0
817 446 1.0
817 453 1.0
817 460 1.0
817 467 1.0
817 474 1.0
818 382 1.0
818 389 1.0
818 396 1.0
818 403 1.0
818 410 1.0
818 417 1.0
818 424 1.0
818 431 1.0
818 438 1.0
818 445 1.0
818 452 1.0
818 459 1.0
818 466 1.0
818 473 1.0
818 480 1.0
818 487 1.0
819 395 1.0
819 402 1.0
819 409 1.0
819 416 1.0
819 423 1.0
819 430 1.0
819 437 1.0
819 444 1.0
819 451 1.0
819 458 1.0
819 465 1.0
819 472 1.0
819 479 1.0
819 486 1.0
819 493 1.0
819 500 1.0
820 408 1.0
820 415 1.0
820 422 1.0
820 429 1.0
820 436 1.0
820 443 1.0
820 450 1.0
820 457 1.0
820 464 1.0
820 471 1.0
820 478 1.0
820 485 1.0
820 492 1.0
820 499 1.0
820 506 1.0
820 513 1.0
821 421 1.0
821 428 1.0
821 435 1.0
821 442 1.0
821 449 1.0
821 456 1.0
821 463 1.0
821 470 1.0
821 477 1.0
821 484 1.0
821 491 1.0
821 498 1.0
821 505 1.0
821 512 1.0
821 519 1.0
821 526 1.0
822 434 1.0
822 441 1.0
822 448 1.0
822 455 1.0
822 462 1.0
822 469 1.0
822 476 1.0
822 483 1.0
822 490 1.0
822 497 1.0
822 504 1.0
822 511 1.0
822 518 1.0
822 525 1.0
822 532 1.0
822 539 1.0
823 447 1.0
823 454 1.0
823 461 1.0
823 468 1.0
823 475 1.0
823 482 1.0
823 489 1.0
823 496 1.0
823 503 1.0
823 510 1.0
823 517 1.0
823 524 1.0
823 531 1.0
823 538 1.0
823 545 1.0
823 552 1.0
824 460 1.0
824 467 1.0
824 474 1.0
824 481 1.0
824 488 1.0
824 495 1.0
824 502 1.0
824 509 1.0
824 516 1.0
824 523 1.0
824 530 1.0
824 537 1.0
824 544 1.0
824 551 1.0
824 558 1.0
824 565 1.0
825 473 1.0
825 480 1.0
825 487 1.0
825 494 1.0
825 501 1.0
825 508 1.0
825 515 1.0
825 522 1.0
825 529 1.0
825 536 1.0
825 543 1.0
825 550 1.0
825 557 1.0
825 564 1.0
825 571 1.0
825 578 1.0
826 486 1.0
826 493 1.0
826 500 1.0
826 507 1.0
826 514 1.0
826 521 1.0
826 528 1.0
826 535 1.0
826 542 1.0
826 549 1.0
826 556 1.0
826 563 1.0
826 570 1.0
826 577 1.0
826 584 1.0
826 591 1.0
827 499 1.0
827 506 1.0
827 513 1.0
827 520 1.0
827 527 1.0
827 534 1.0
827 541 1.0
827 548 1.0
827 555 1.0
827 562 1.0
827 569 1.0
827 576 1.0
827 583 1.0
827 590 1.0
827 597 1.0
827 604 1.0
828 512 1.0
828 519 1.0
828 526 1.0
828 533 1.0
828 540 1.0
828 547 1.0
828 554 1.0
828 561 1.0
828 568 1.0
828 575 1.0
828 582 1.0
828 589 1.0
828 596 1.0
828 603 1.0
828 610 1.0
828 617 1.0
829 525 1.0
829 532 1.0
829 539 1.0
829 546 1.0
829 553 1.0
829 560 1.0
829 567 1.0
829 574 1.0
829 581 1.0
829 588 1.0
829 595 1.0
829 602 1.0
829 609 1.0
829 616 1.0
829 623 1.0
829 630 1.0
830 538 1.0
830 545 1.0
830 552 1.0
830 559 1.0
830 566 1.0
830 573 1.0
830 580 1.0
830 587 1.0
830 594 1.0
830 601 1.0
830 608 1.0
830 615 1.0
830 622 1.0
830 629 1.0
830 636 1.0
830 643 1.0
831 551 1.0
831 558 1.0
831 565 1.0
831 572 1.0
831 579 1.0
831 586 1.0
831 593 1.0
831 600 1.0
831 607 1.0
831 614 1.0
831 621 1.0
831 628 1.0
831 635 1.0
831 642 1.0
831 649 1.0
831 656 1.0
832 564 1.0
832 571 1.0
832 578 1.0
832 585 1.0
832 592 1.0
832 599 1.0
832 606 1.0
832 613 1.0
832 620 1.0
832 627 1.0
832 634 1.0
832 641 1.0
832 648 1.0
832 655 1.0
832 662 1.0
832 669 1.0
833 577 1.0
833 584 1.0
833 591 1.0
833 598 1.0
833 605 1.0
833 612 1.0
833 619 1.0
833 626 1.0
833 633 1.0
833 640 1.0
833 647 1.0
833 654 1.0
833 661 1.0
833 668 1.0
833 675 1.0
833 682 1.0
834 590 1.0
834 597 1.0
834 604 1.0
834 611 1.0
834 618 1.0
834 625 1.0
834 632 1.0
834 639 1.0
834 646 1.0
834 653 1.0
834 660 1.0
834 667 1.0
834 674 1.0
834 681 1.0
834 688 1.0
834 695 1.0
835 603 1.0
835 610 1.0
835 617 1.0
835 624 1.0
835 631 1.0
835 638 1.0
835 645 1.0
835 652 1.0
835 659 1.0
835 666 1.0
835 673 1.0
835 680 1.0
835 687 1.0
835 694 1.0
835 701 1.0
835 708 1.0
836 616 1.0
836 623 1.0
836 630 1.0
836 637 1.0
836 644 1.0
836 651 1.0
836 658 1.0
836 665 1.0
836 672 1.0
836 679 1.0
836 686 1.0
836 693 1.0
836 700 1.0
836 707 1.0
836 714 1.0
836 721 1.0
837 629 1.0
837 636 1.0
837 643 1.0
837 650 1.0
837 657 1.0
837 664 1.0
837 671 1.0
837 678 1.0
837 685 1.0
837 692 1.0
837 699 1.0
837 706 1.0
837 713 1.0
837 720 1.0
837 727 1.0
837 734 1.0
838 642 1.0
838 649 1.0
838 656 1.0
838 663 1.0
838 670 1.0
838 677 1.0
838 684 1.0
838 691 1.0
838 698 1.0
838 705 1.0
838 712 1.0
838 719 1.0
838 726 1.0
838 733 1.0
838 740 1.0
838 747 1.0
839 655 1.0
839 662 1.0
839 669 1.0
839 676 1.0
839 683 1.0
839 690 1.0
839 697 1.0
839 704 1.0
839 711 1.0
839 718 1.0
839 725 1.0
839 732 1.0
839 739 1.0
839 746 1.0
839 753 1.0
839 760 1.0
840 668 1.0
840 675 1.0
840 682 1.0
840 689 1.0
840 696 1.0
840 703 1.0
840 710 1.0
840 717 1.0
840 724 1.0
840 731 1.0
840 738 1.0
840 745 1.0
840 752 1.0
840 759 1.0
840 766 1.0
840 773 1.0
841 681 1.0
841 688 1.0
841 695 1.0
841 702 1.0
841 709 1.0
841 716 1.0
841 723 1.0
841 730 1.0
841 737 1.0
841 744 1.0
841 751 1.0
841 758 1.0
841 765 1.0
841 772 1.0
841 779 1.0
841 786 1.0
842 694 1.0
842 701 1.0
842 708 1.0
842 715 1.0
842 722 1.0
842 729 1.0
842 736 1.0
842 743 1.0
842 750 1.0
842 757 1.0
842 764 1.0
842 771 1.0
842 778 1.0
842 785 1.0
842 792 1.0
842 799 1.0
843 707 1.0
843 714 1.0
843 721 1.0
843 728 1.0
843 735 1.0
843 742 1.0
843 749 1.0
843 756 1.0
843 763 1.0
843 770 1.0
843 777 1.0
843 784 1.0
843 791 1.0
843 798 1.0
843 805 1.0
843 812 1.0
844 720 1.0
844 727 1.0
844 734 1.0
844 741 1.0
844 748 1.0
844 755 1.0
844 762 1.0
844 769 1.0
844 776 1.0
844 783 1.0
844 790 1.0
844 797 1.0
844 804 1.0
844 811 1.0
844 818 1.0
844 825 1.0
845 733 1.0
845 740 1.0
845 747 1.0
845 754 1.0
845 761 1.0
845 768 1.0
845 775 1.0
845 782 1.0
845 789 1.0
845 796 1.0
845 803 1.0
845 810 1.0
845 817 1.0
845 824 1.0
845 831 1.0
845 838 1.0
846 746 1.0
846 753 1.0
846 760 1.0
846 767 1.0
846 774 1.0
846 781 1.0
846 788 1.0
846 795 1.0
846 802 1.0
846 809 1.0
846 816 1.0
846 823 1.0
846 830 1.0
846 837 1.0
846 844 1.0
846 851 1.0
847 759 1.0
847 766 1.0
847 773 1.0
847 780 1.0
847 787 1.0
847 794 1.0
847 801 1.0
847 808 1.0
847 815 1.0
847 822 1.0
847 829 1.0
847 836 1.0
847 843 1.0
847 850 1.0
847 857 1.0
847 864 1.0
848 772 1.0
848 779 1.0
848 786 1.0
848 793 1.0
848 800 1.0
848 807 1.0
848 814 1.0
848 821 1.0
848 828 1.0
848 835 1.0
848 842 1.0
848 849 1.0
848 856 1.0
848 863 1.0
848 870 1.0
848 877 1.0
849 785 1.0
849 792 1.0
849 799 1.0
849 806 1.0
849 813 1.0
849 820 1.0
849 827 1.0
849 834 1.0
849 841 1.0
849 848 1.0
849 855 1.0
849 862 1.0
849 869 1.0
849 876 1.0
849 883 1.0
849 890 1.0
850 798 1.0
850 805 1.0
850 812 1.0
850 819 1.0
850 826 1.0
850 833 1.0
850 840 1.0
850 847 1.0
850 854 1.0
850 861 1.0
850 868 1.0
850 875 1.0
850 882 1.0
850 889 1.0
850 896 1.0
850 903 1.0
851 811 1.0
851 818 1.0
851 825 1.0
851 832 1.0
851 839 1.0
851 846 1.0
851 853 1.0
851 860 1.0
851 867 1.0
851 874 1.0
851 881 1.0
851 888 1.0
851 895 1.0
851 902 1.0
851 909 1.0
851 916 1.0
852 824 1.0
852 831 1.0
852 838 1.0
852 845 1.0
852 852 1.0
852 859 1.0
852 866 1.0
852 873 1.0
852 880 1.0
852 887 1.0
852 894 1.0
852 901 1.0
852 908 1.0
852 915 1.0
852 922 1.0
852 929 1.0
853 837 1.0
853 844 1.0
853 851 1.0
853 858 1.0
853 865 1.0
853 872 1.0
853 879 1.0
853 886 1.0
853 893 1.0
853 900 1.0
853 907 1.0
853 914 1.0
853 921 1.0
853 928 1.0
853 935 1.0
853 942 1.0
854 850 1.0
854 857 1.0
854 864 1.0
854 871 1.0
854 878 1.0
854 885 1.0
854 892 1.0
854 899 1.0
854 906 1.0
854 913 1.0
854 920 1.0
854 927 1.0
854 934 1.0
854 941 1.0
854 948 1.0
854 955 1.0
855 863 1.0
855 870 1.0
855 877 1.0
855 884 1.0
855 891 1.0
855 898 1.0
855 905 1.0
855 912 1.0
855 919 1.0
855 926 1.0
855 933 1.0
855 940 1.0
855 947 1.0
855 954 1.0
855 961 1.0
855 968 1.0
856 876 1.0
856 883 1.0
856 890 1.0
856 897 1.0
856 904 1.0
856 911 1.0
856 918 1.0
856 925 1.0
856 932 1.0
856 939 1.0
856 946 1.0
856 953 1.0
856 960 1.0
856 967 1.0
856 974 1.0
856 981 1.0
857 889 1.0
857 896 1.0
857 903 1.0
857 910 1.0
857 917 1.0
857 924 1.0
857 931 1.0
857 938 1.0
857 945 1.0
857 952 1.0
857 959 1.0
857 966 1.0
857 973 1.0
857 980 1.0
857 987 1.0
857 994 1.0
858 902 1.0
858 909 1.0
858 916 1.0
858 923 1.0
858 930 1.0
858 937 1.0
858 944 1.0
858 951 1.0
858 958 1.0
858 965 1.0
858 972 1.0
858 979 1.0
858 986 1.0
858 993 1.0
858 1000 1.0
858 1007 1.0
859 915 1.0
859 922 1.0
859 929 1.0
859 936 1.0
859 943 1.0
859 950 1.0
859 957 1.0
859 964 1.0
859 971 1.0
859 978 1.0
859 985 1.0
859 992 1.0
859 999 1.0
859 1006 1.0
859 1013 1.0
859 1020 1.0
860 928 1.0
860 935 1.0
860 942 1.0
860 949 1.0
860 956 1.0
860 963 1.0
860 970 1.0
860 977 1.0
860 984 1.0
860 991 1.0
860 998 1.0
860 1005 1.0
860 1012 1.0
860 1019 1.0
860 2 1.0
860 9 1.0
861 941 1.0
861 948 1.0
861 955 1.0
861 962 1.0
861 969 1.0
861 976 1.0
861 983 1.0
861 990 1.0
861 997 1.0
861 1004 1.0
861 1011 1.0
861 1018 1.0
861 1 1.0
861 8 1.0
861 15 1.0
861 22 1.0
862 954 1.0
862 961 1.0
862 968 1.0
862 975 1.0
862 982 1.0
862 989 1.0
862 996 1.0
862 1003 1.0
862 1010 1.0
862 1017 1.0
862 1024 1.0
862 7 1.0
862 14 1.0
862 21 1.0
862 28 1.0
862 35 1.0
863 967 1.0
863 974 1.0
863 981 1.0
863 988 1.0
863 995 1.0
863 1002 1.0
863 1009 1.0
863 1016 1.0
863 1023 1.0
863 6 1.0
863 13 1.0
863 20 1.0
863 27 1.0
863 34 1.0
863 41 1.0
863 48 1.0
864 980 1.0
864 987 1.0
864 994 1.0
864 1001 1.0
864 1008 1.0
864 1015 1.0
864 1022 1.0
864 5 1.0
864 12 1.0
864 19 1.0
864 26 1.0
864 33 1.0
864 40 1.0
864 47 1.0
864 54 1.0
864 61 1.0
865 993 1.0
865 1000 1.0
865 1007 1.0
865 1014 1.0
865 1021 1.0
865 4 1.0
865 11 1.0
865 18 1.0
865 25 1.0
865 32 1.0
865 39 1.0
865 46 1.0
865 53 1.0
865 60 1.0
865 67 1.0
865 74 1.0
866 1006 1.0
866 1013 1.0
866 1020 1.0
866 3 1.0
866 10 1.0
866 17 1.0
866 24 1.0
866 31 1.0
866 38 1.0
866 45 1.0
866 52 1.0
866 59 1.0
866 66 1.0
866 73 1.0
866 80 1.0
866 87 1.0
867 1019 1.0
867 2 1.0
867 9 1.0
867 16 1.0
867 23 1.0
867 30 1.0
867 37 1.0
867 44 1.0
867 51 1.0
867 58 1.0
867 65 1.0
867 72 1.0
867 79 1.0
867 86 1.0
867 93 1.0
867 100 1.0
868 8 1.0
868 15 1.0
868 22 1.0
868 29 1.0
868 36 1.0
868 43 1.0
868 50 1.0
868 57 1.0
868 64 1.0
868 71 1.0
868 78 1.0
868 85 1.0
868 92 1.0
868 99 1.0
868 106 1.0
868 113 1.0
869 21 1.0
869 28 1.0
869 35 1.0
869 42 1.0
869 49 1.0
869 56 1.0
869 63 1.0
869 70 1.0
869 77 1.0
869 84 1.0
869 91 1.0
869 98 1.0
869 105 1.0
869 112 1.0
869 119 1.0
869 126 1.0
870 34 1.0
870 41 1.0
870 48 1.0
870 55 1.0
870 62 1.0
870 69 1.0
870 76 1.0
870 83 1.0
870 90 1.0
870 97 1.0
870 104 1.0
870 111 1.0
870 118 1.0
870 125 1.0
870 132 1.0
870 139 1.0
871 47 1.0
871 54 1.0
871 61 1.0
871 68 1.0
871 75 1.0
871 82 1.0
871 89 1.0
871 96 1.0
871 103 1.0
871 110 1.0
871 117 1.0
871 124 1.0
871 131 1.0
871 138 1.0
871 145 1.0
871 152 1.0
872 60 1.0
872 67 1.0
872 74 1.0
872 81 1.0
872 88 1.0
872 95 1.0
872 102 1.0
872 109 1.0
872 116 1.0
872 123 1.0
872 130 1.0
872 137 1.0
872 144 1.0
872 151 1.0
872 158 1.0
872 165 1.0
873 73 1.0
873 80 1.0
873 87 1.0
873 94 1.0
873 101 1.0
873 108 1.0
873 115 1.0
873 122 1.0
873 129 1.0
873 136 1.0
873 143 1.0
873 150 1.0
873 157 1.0
873 164 1.0
873 171 1.0
873 178 1.0
874 86 1.0
874 93 1.0
874 100 1.0
874 107 1.0
874 114 1.0
874 121 1.0
874 128 1.0
874 135 1.0
874 142 1.0
874 149 1.0
874 156 1.0
874 163 1.0
874 170 1.0
874 177 1.0
874 184 1.0
874 191 1.0
875 99 1.0
875 106 1.0
875 113 1.0
875 120 1.0
875 127 1.0
875 134 1.0
875 141 1.0
875 148 1.0
875 155 1.0
875 162 1.0
875 169 1.0
875 176 1.0
875 183 1.0
875 190 1.0
875 197 1.0
875 204 1.0
876 112 1.0
876 119 1.0
876 126 1.0
876 133 1.0
876 140 1.0
876 147 1.0
876 154 1.0
876 161 1.0
876 168 1.0
876 175 1.0
876 182 1.0
876 189 1.0
876 196 1.0
876 203 1.0
876 210 1.0
876 217 1.0
877 125 1.0
877 132 1.0
877 139 1.0
877 146 1.0
877 153 1.0
877 160 1.0
877 167 1.0
877 174 1.0
877 181 1.0
877 188 1.0
877 195 1.0
877 202 1.0
877 209 1.0
877 216 1.0
877 223 1.0
877 230 1.0
878 138 1.0
878 145 1.0
878 152 1.0
878 159 1.0
878 166 1.0
878 173 1.0
878 180 1.0
878 187 1.0
878 194 1.0
878 201 1.0
878 208 1.0
878 215 1.0
878 222 1.0
878 229 1.0
878 236 1.0
878 243 1.0
879 151 1.0
879 158 1.0
879 165 1.0
879 172 1.0
879 179 1.0
879 186 1.0
879 193 1.0
879 200 1.0
879 207 1.0
879 214 1.0
879 221 1.0
879 228 1.0
879 235 1.0
879 242 1.0
879 249 1.0
879 256 1.0
880 164 1.0
880 171 1.0
880 178 1.0
880 185 1.0
880 192 1.0
880 199 1.0
880 206 1.0
880 213 1.0
880 220 1.0
880 227 1.0
880 234 1.0
880 241 1.0
880 248 1.0
880 255 1.0
880 262 1.0
880 269 1.0
881 177 1.0
881 184 1.0
881 191 1.0
881 198 1.0
881 205 1.0
881 212 1.0
881 219 1.0
881 226 1.0
881 233 1.0
881 240 1.0
881 247 1.0
881 254 1.0
881 261 1.0
881 268 1.0
881 275 1.0
881 282 1.0
882 190 1.0
882 197 1.0
882 204 1.0
882 211 1.0
882 218 1.0
882 225 1.0
882 232 1.0
882 239 1.0
882 246 1.0
882 253 1.0
882 260 1.0
882 267 1.0
882 274 1.0
882 281 1.0
882 288 1.0
882 295 1.0
883 203 1.0
883 210 1.0
883 217 1.0
883 224 1.0
883 231 1.0
883 238 1.0
883 245 1.0
883 252 1.0
883 259 1.0
883 266 1.0
883 273 1.0
883 280 1.0
883 287 1.0
883 294 1.0
883 301 1.0
883 308 1.0
884 216 1.0
884 223 1.0
884 230 1.0
884 237 1.0
884 244 1.0
884 251 1.0
884 258 1.0
884 265 1.0
884 272 1.0
884 279 1.0
884 286 1.0
884 293 1.0
884 300 1.0
884 307 1.0
884 314 1.0
884 321 1.0
885 229 1.0
885 236 1.0
885 243 1.0
885 250 1.0
885 257 1.0
885 264 1.0
885 271 1.0
885 278 1.0
885 285 1.0
885 292 1.0
885 299 1.0
885 306 1.0
885 313 1.0
885 320 1.0
885 327 1.0
885 334 1.0
886 242 1.0
886 249 1.0
886 256 1.0
886 263 1.0
886 270 1.0
886 277 1.0
886 284 1.0
886 291 1.0
886 298 1.0
886 305 1.0
886 312 1.0
886 319 1.0
886 326 1.0
886 333 1.0
886 340 1.0
886 347 1.0
887 255 1.0
887 262 1.0
887 269 1.0
887 276 1.0
887 283 1.0
887 290 1.0
887 297 1.0
887 304 1.0
887 311 1.0
887 318 1.0
887 325 1.0
887 332 1.0
887 339 1.0
887 346 1.0
887 353 1.0
887 360 1.0
888 268 1.0
888 275 1.0
888 282 1.0
888 289 1.0
888 296 1.0
888 303 1.0
888 310 1.0
888 317 1.0
888 324 1.0
888 331 1.0
888 338 1.0
888 345 1.0
888 352 1.0
888 359 1.0
888 366 1.0
888 373 1.0
889 281 1.0
889 288 1.0
889 295 1.0
889 302 1.0
889 309 1.0
889 316 1.0
889 323 1.0
889 330 1.0
889 337 1.0
889 344 1.0
889 351 1.0
889 358 1.0
889 365 1.0
889 372 1.0
889 379 1.0
889 386 1.0
890 294 1.0
890 301 1.0
890 308 1.0
890 315 1.0
890 322 1.0
890 329 1.0
890 336 1.0
890 343 1.0
890 350 1.0
890 357 1.0
890 364 1.0
890 371 1.0
890 378 1.0
890 385 1.0
890 392 1.0
890 399 1.0
891 307 1.0
891 314 1.0
891 321 1.0
891 328 1.0
891 335 1.0
891 342 1.0
891 349 1.0
891 356 1.0
891 363 1.0
891 370 1.0
891 377 1.0
891 384 1.0
891 391 1.0
891 398 1.0
891 405 1.0
891 412 1.0
892 320 1.0
892 327 1.0
892 334 1.0
892 341 1.0
892 348 1.0
892 355 1.0
892 362 1.0
892 369 1.0
892 376 1.0
892 383 1.0
892 390 1.0
892 397 1.0
892 404 1.0
892 411 1.0
892 418 1.0
892 425 1.0
893 333 1.0
893 340 1.0
893 347 1.0
893 354 1.0
893 361 1.0
893 368 1.0
893 375 1.0
893 382 1.0
893 389 1.0
893 396 1.0
893 403 1.0
893 410 1.0
893 417 1.0
893 424 1.0
893 431 1.0
893 438 1.0
894 346 1.0
894 353 1.0
894 360 1.0
894 367 1.0
894 374 1.0
894 381 1.0
894 388 1.0
894 395 1.0
894 402 1.0
894 409 1.0
894 416 1.0
894 423 1.0
894 430 1.0
894 437 1.0
894 444 1.0
894 451 1.0
895 359 1.0
895 366 1.0
895 373 1.0
895 380 1.0
895 387 1.0
895 394 1.0
895 401 1.0
895 408 1.0
895 415 1.0
895 422 1.0
895 429 1.0
895 436 1.0
895 443 1.0
895 450 1.0
895 457 1.0
895 464 1.0
896 372 1.0
896 379 1.0
896 386 1.0
896 393 1.0
896 400 1.0
896 407 1.0
896 414 1.0
896 421 1.0
896 428 1.0
896 435 1.0
896 442 1.0
896 449 1.0
896 456 1.0
896 463 1.0
896 470 1.0
896 477 1.0
897 385 1.0
897 392 1.0
897 399 1.0
897 406 1.0
897 413 1.0
897 420 1.0
897 427 1.0
897 434 1.0
897 441 1.0
897 448 1.0
897 455 1.0
897 462 1.0
897 469 1.0
897 476 1.0
897 483 1.0
897 490 1.0
898 398 1.0
898 405 1.0
898 412 1.0
898 419 1.0
898 426 1.0
898 433 1.0
898 440 1.0
898 447 1.0
898 454 1.0
898 461 1.0
898 468 1.0
898 475 1.0
898 482 1.0
898 489 1.0
898 496 1.0
898 503 1.0
899 411 1.0
899 418 1.0
899 425 1.0
899 432 1.0
899 439 1.0
899 446 1.0
899 453 1.0
899 460 1.0
899 467 1.0
899 474 1.0
899 481 1.0
899 488 1.0
899 495 1.0
899 502 1.0
899 509 1.0
899 516 1.0
900 424 1.0
900 431 1.0
900 438 1.0
900 445 1.0
900 452 1.0
900 459 1.0
900 466 1.0
900 473 1.0
900 480 1.0
900 487 1.0
900 494 1.0
900 501 1.0
900 508 1.0
900 515 1.0
900 522 1.0
900 529 1.0
901 437 1.0
901 444 1.0
901 451 1.0
901 458 1.0
901 465 1.0
901 472 1.0
901 479 1.0
901 486 1.0
901 493 1.0
901 500 1.0
901 507 1.0
901 514 1.0
901 521 1.0
901 528 1.0
901 535 1.0
901 542 1.0
902 450 1.0
902 457 1.0
902 464 1.0
902 471 1.0
902 478 1.0
902 485 1.0
902 492 1.0
902 499 1.0
902 506 1.0
902 513 1.0
902 520 1.0
902 527 1.0
902 534 1.0
902 541 1.0
902 548 1.0
902 555 1.0
903 463 1.0
903 470 1.0
903 477 1.0
903 484 1.0
903 491 1.0
903 498 1.0
903 505 1.0
903 512 1.0
903 519 1.0
903 526 1.0
903 533 1.0
903 540 1.0
903 547 1.0
903 554 1.0
903 561 1.0
903 568 1.0
904 476 1.0
904 483 1.0
904 490 1.0
904 497 1.0
904 504 1.0
904 511 1.0
904 518 1.0
904 525 1.0
904 532 1.0
904 539 1.0
904 546 1.0
904 553 1.0
904 560 1.0
904 567 1.0
904 574 1.0
904 581 1.0
905 489 1.0
905 496 1.0
905 503 1.0
905 510 1.0
905 517 1.0
905 524 1.0
905 531 1.0
905 538 1.0
905 545 1.0
905 552 1.0
905 559 1.0
905 566 1.0
905 573 1.0
905 580 1.0
905 587 1.0
905 594 1.0
906 502 1.0
906 509 1.0
906 516 1.0
906 523 1.0
906 530 1.0
906 537 1.0
906 544 1.0
906 551 1.0
906 558 1.0
906 565 1.0
906 572 1.0
906 579 1.0
906 586 1.0
906 593 1.0
906 600 1.0
906 607 1.0
907 515 1.0
907 522 1.0
907 529 1.0
907 536 1.0
907 543 1.0
907 550 1.0
907 557 1.0
907 564 1.0
907 571 1.0
907 578 1.0
907 585 1.0
907 592 1.0
907 599 1.0
907 606 1.0
907 613 1.0
907 620 1.0
908 528 1.0
908 535 1.0
908 542 1.0
908 549 1.0
908 556 1.0
908 563 1.0
908 570 1.0
908 577 1.0
908 584 1.0
908 591 1.0
908 598 1.0
908 605 1.0
908 612 1.0
908 619 1.0
908 626 1.0
908 633 1.0
909 541 1.0
909 548 1.0
909 555 1.0
909 562 1.0
909 569 1.0
909 576 1.0
909 583 1.0
909 590 1.0
909 597 1.0
909 604 1.0
909 611 1.0
909 618 1.0
909 625 1.0
909 632 1.0
909 639 1.0
909 646 1.0
910 554 1.0
910 561 1.0
910 568 1.0
910 575 1.0
910 582 1.0
910 589 1.0
910 596 1.0
910 603 1.0
910 610 1.0
910 617 1.0
910 624 1.0
910 631 1.0
910 638 1.0
910 645 1.0
910 652 1.0
910 659 1.0
911 567 1.0
911 574 1.0
911 581 1.0
911 588 1.0
911 595 1.0
911 602 1.0
911 609 1.0
911 616 1.0
911 623 1.0
911 630 1.0
911 637 1.0
911 644 1.0
911 651 1.0
911 658 1.0
911 665 1.0
911 672 1.0
912 580 1.0
912 587 1.0
912 594 1.0
912 601 1.0
912 608 1.0
912 615 1.0
912 622 1.0
912 629 1.0
912 636 1.0
912 643 1.0
912 650 1.0
912 657 1.0
912 664 1.0
912 671 1.0
912 678 1.0
912 685 1.0
913 593 1.0
913 600 1.0
913 607 1.0
913 614 1.0
913 621 1.0
913 628 1.0
913 635 1.0
913 642 1.0
913 649 1.0
913 656 1.0
913 663 1.0
913 670 1.0
913 677 1.0
913 684 1.0
913 691 1.0
913 698 1.0
914 606 1.0
914 613 1.0
914 620 1.0
914 627 1.0
914 634 1.0
914 641 1.0
914 648 1.0
914 655 1.0
914 662 1.0
914 669 1.0
914 676 1.0
914 683 1.0
914 690 1.0
914 697 1.0
914 704 1.0
914 711 1.0
915 619 1.0
915 626 1.0
915 633 1.0
915 640 1.0
915 647 1.0
915 654 1.0
915 661 1.0
915 668 1.0
915 675 1.0
915 682 1.0
915 689 1.0
915 696 1.0
915 703 1.0
915 710 1.0
915 717 1.0
915 724 1.0
916 632 1.0
916 639 1.0
916 646 1.0
916 653 1.0
916 660 1.0
916 667 1.0
916 674 1.0
916 681 1.0
916 688 1.0
916 695 1.0
916 702 1.0
916 709 1.0
916 716 1.0
916 723 1.0
916 730 1.0
916 737 1.0
917 645 1.0
917 652 1.0
917 659 1.0
917 666 1.0
917 673 1.0
917 680 1.0
917 687 1.0
917 694 1.0
917 701 1.0
917 708 1.0
917 715 1.0
917 722 1.0
917 729 1.0
917 736 1.0
917 743 1.0
917 750 1.0
918 658 1.0
918 665 1.0
918 672 1.0
918 679 1.0
918 686 1.0
918 693 1.0
918 700 1.0
918 707 1.0
918 714 1.0
918 721 1.0
918 728 1.0
918 735 1.0
918 742 1.0
918 749 1.0
918 756 1.0
918 763 1.0
919 671 1.0
919 678 1.0
919 685 1.0
919 692 1.0
919 699 1.0
919 706 1.0
919 713 1.0
919 720 1.0
919 727 1.0
919 734 1.0
919 741 1.0
919 748 1.0
919 755 1.0
919 762 1.0
919 769 1.0
919 776 1.0
920 684 1.0
920 691 1.0
920 698 1.0
920 705 1.0
920 712 1.0
920 719 1.0
920 726 1.0
920 733 1.0
920 740 1.0
920 747 1.0
920 754 1.0
920 761 1.0
920 768 1.0
920 775 1.0
920 782 1.0
920 789 1.0
921 697 1.0
921 704 1.0
921 711 1.0
921 718 1.0
921 725 1.0
921 732 1.0
921 739 1.0
921 746 1.0
921 753 1.0
921 760 1.0
921 767 1.0
921 774 1.0
921 781 1.0
921 788 1.0
921 795 1.0
921 802 1.0
922 710 1.0
922 717 1.0
922 724 1.0
922 731 1.0
922 738 1.0
922 745 1.0
922 752 1.0
922 759 1.0
922 766 1.0
922 773 1.0
922 780 1.0
922 787 1.0
922 794 1.0
922 801 1.0
922 808 1.0
922 815 1.0
923 723 1.0
923 730 1.0
923 737 1.0
923 744 1.0
923 751 1.0
923 758 1.0
923 765 1.0
923 772 1.0
923 779 1.0
923 786 1.0
923 793 1.0
923 800 1.0
923 807 1.0
923 814 1.0
923 821 1.0
923 828 1.0
924 736 1.0
924 743 1.0
924 750 1.0
924 757 1.0
924 764 1.0
924 771 1.0
924 778 1.0
924 785 1.0
924 792 1.0
924 799 1.0
924 806 1.0
924 813 1.0
924 820 1.0
924 827 1.0
924 834 1.0
924 841 1.0
925 749 1.0
925 756 1.0
925 763 1.0
925 770 1.0
925 777 1.0
925 784 1.0
925 791 1.0
925 798 1.0
925 805 1.0
925 812 1.0
925 819 1.0
925 826 1.0
925 833 1.0
925 840 1.0
925 847 1.0
925 854 1.0
926 762 1.0
926 769 1.0
926 776 1.0
926 783 1.0
926 790 1.0
926 797 1.0
926 804 1.0
926 811 1.0
926 818 1.0
926 825 1.0
926 832 1.0
926 839 1.0
926 846 1.0
926 853 1.0
926 860 1.0
926 867 1.0
927 775 1.0
927 782 1.0
927 789 1.0
927 796 1.0
927 803 1.0
927 810 1.0
927 817 1.0
927 824 1.0
927 831 1.0
927 838 1.0
927 845 1.0
927 852 1.0
927 859 1.0
927 866 1.0
927 873 1.0
927 880 1.0
928 788 1.0
928 795 1.0
928 802 1.0
928 809 1.0
928 816 1.0
928 823 1.0
928 830 1.0
928 837 1.0
928 844 1.0
928 851 1.0
928 858 1.0
928 865 1.0
928 872 1.0
928 879 1.0
928 886 1.0
928 893 1.0
929 801 1.0
929 808 1.0
929 815 1.0
929 822 1.0
929 829 1.0
929 836 1.0
929 843 1.0
929 850 1.0
929 857 1.0
929 864 1.0
929 871 1.0
929 878 1.0
929 885 1.0
929 892 1.0
929 899 1.0
929 906 1.0
930 814 1.0
930 821 1.0
930 828 1.0
930 835 1.0
930 842 1.0
930 849 1.0
930 856 1.0
930 863 1.0
930 870 1.0
930 877 1.0
930 884 1.0
930 891 1.0
930 898 1.0
930 905 1.0
930 912 1.0
930 919 1.0
931 827 1.0
931 834 1.0
931 841 1.0
931 848 1.0
931 855 1.0
931 862 1.0
931 869 1.0
931 876 1.0
931 883 1.0
931 890 1.0
931 897 1.0
931 904 1.0
931 911 1.0
931 918 1.0
931 925 1.0
931 932 1.0
932 840 1.0
932 847 1.0
932 854 1.0
932 861 1.0
932 868 1.0
932 875 1.0
932 882 1.0
932 889 1.0
932 896 1.0
932 903 1.0
932 910 1.0
932 917 1.0
932 924 1.0
932 931 1.0
932 938 1.0
932 945 1.0
933 853 1.0
933 860 1.0
933 867 1.0
933 874 1.0
933 881 1.0
933 888 1.0
933 895 1.0
933 902 1.0
933 909 1.0
933 916 1.0
933 923 1.0
933 930 1.0
933 937 1.0
933 944 1.0
933 951 1.0
933 958 1.0
934 866 1.0
934 873 1.0
934 880 1.0
934 887 1.0
934 894 1.0
934 901 1.0
934 908 1.0
934 915 1.0
934 922 1.0
934 929 1.0
934 936 1.0
934 943 1.0
934 950 1.0
934 957 1.0
934 964 1.0
934 971 1.0
935 879 1.0
935 886 1.0
935 893 1.0
935 900 1.0
935 907 1.0
935 914 1.0
935 921 1.0
935 928 1.0
935 935 1.0
935 942 1.0
935 949 1.0
935 956 1.0
935 963 1.0
935 970 1.0
935 977 1.0
935 984 1.0
936 892 1.0
936 899 1.0
936 906 1.0
936 913 1.0
936 920 1.0
936 927 1.0
936 934 1.0
936 941 1.0
936 948 1.0
936 955 1.0
936 962 1.0
936 969 1.0
936 976 1.0
936 983 1.0
936 990 1.0
936 997 1.0
937 905 1.0
937 912 1.0
937 919 1.0
937 926 1.0
937 933 1.0
937 940 1.0
937 947 1.0
937 954 1.0
937 961 1.0
937 968 1.0
937 975 1.0
937 982 1.0
937 989 1.0
937 996 1.0
937 1003 1.0
937 1010 1.0
938 918 1.0
938 925 1.0
938 932 1.0
938 939 1.0
938 946 1.0
938 953 1.0
938 960 1.0
938 967 1.0
938 974 1.0
938 981 1.0
938 988 1.0
938 995 1.0
938 1002 1.0
938 1009 1.0
938 1016 1.0
938 1023 1.0
939 931 1.0
939 938 1.0
939 945 1.0
939 952 1.0
939 959 1.0
939 966 1.0
939 973 1.0
939 980 1.0
939 987 1.0
939 994 1.0
939 1001 1.0
939 1008 1.0
939 1015 1.0
939 1022 1.0
939 5 1.0
939 12 1.0
940 944 1.0
940 951 1.0
940 958 1.0
940 965 1.0
940 972 1.0
940 979 1.0
940 986 1.0
940 993 1.0
940 1000 1.0
940 1007 1.0
940 1014 1.0
940 1021 1.0
940 4 1.0
940 11 1.0
940 18 1.0
940 25 1.0
941 957 1.0
941 964 1.0
941 971 1.0
941 978 1.0
941 985 1.0
941 992 1.0
941 999 1.0
941 1006 1.0
941 1013 1.0
941 1020 1.0
941 3 1.0
941 10 1.0
941 17 1.0
941 24 1.0
941 31 1.0
941 38 1.0
942 970 1.0
942 977 1.0
942 984 1.0
942 991 1.0
942 998 1.0
942 1005 1.0
942 1012 1.0
942 1019 1.0
942 2 1.0
942 9 1.0
942 16 1.0
942 23 1.0
942 30 1.0
942 37 1.0
942 44 1.0
942 51 1.0
943 983 1.0
943 990 1.0
943 997 1.0
943 1004 1.0
943 1011 1.0
943 1018 1.0
943 1 1.0
943 8 1.0
943 15 1.0
943 22 1.0
943 29 1.0
943 36 1.0
943 43 1.0
943 50 1.0
943 57 1.0
943 64 1.0
944 996 1.0
944 1003 1.0
944 1010 1.0
944 1017 1.0
944 1024 1.0
944 7 1.0
944 14 1.0
944 21 1.0
944 28 1.0
944 35 1.0
944 42 1.0
944 49 1.0
944 56 1.0
944 63 1.0
944 70 1.0
944 77 1.0
945 1009 1.0
945 1016 1.0
945 1023 1.0
945 6 1.0
945 13 1.0
945 20 1.0
945 27 1.0
945 34 1.0
945 41 1.0
945 48 1.0
945 55 1.0
945 62 1.0
945 69 1.0
945 76 1.0
945 83 1.0
945 90 1.0
946 1022 1.0
946 5 1.0
946 12 1.0
946 19 1.0
946 26 1.0
946 33 1.0
946 40 1.0
946 47 1.0
946 54 1.0
946 61 1.0
946 68 1.0
946 75 1.0
946 82 1.0
946 89 1.0
946 96 1.0
946 103 1.0
947 11 1.0
947 18 1.0
947 25 1.0
947 32 1.0
947 39 1.0
947 46 1.0
947 53 1.0
947 60 1.0
947 67 1.0
947 74 1.0
947 81 1.0
947 88 1.0
947 95 1.0
947 102 1.0
947 109 1.0
947 116 1.0
948 24 1.0
948 31 1.0
948 38 1.0
948 45 1.0
948 52 1.0
948 59 1.0
948 66 1.0
948 73 1.0
948 80 1.0
948 87 1.0
948 94 1.0
948 101 1.0
948 108 1.0
948 115 1.0
948 122 1.0
948 129 1.0
949 37 1.0
949 44 1.0
949 51 1.0
949 58 1.0
949 65 1.0
949 72 1.0
949 79 1.0
949 86 1.0
949 93 1.0
949 100 1.0
949 107 1.0
949 114 1.0
949 121 1.0
949 128 1.0
949 135 1.0
949 142 1.0
950 50 1.0
950 57 1.0
950 64 1.0
950 71 1.0
950 78 1.0
950 85 1.0
950 92 1.0
950 99 1.0
950 106 1.0
950 113 1.0
950 120 1.0
950 127 1.0
950 134 1.0
950 141 1.0
950 148 1.0
950 155 1.0
951 63 1.0
951 70 1.0
951 77 1.0
951 84 1.0
951 91 1.0
951 98 1.0
951 105 1.0
951 112 1.0
951 119 1.0
951 126 1.0
951 133 1.0
951 140 1.0
951 147 1.0
951 154 1.0
951 161 1.0
951 168 1.0
952 76 1.0
952 83 1.0
952 90 1.0
952 97 1.0
952 104 1.0
952 111 1.0
952 118 1.0
952 125 1.0
952 132 1.0
952 139 1.0
952 146 1.0
952 153 1.0
952 160 1.0
952 167 1.0
952 174 1.0
952 181 1.0
953 89 1.0
953 96 1.0
953 103 1.0
953 110 1.0
953 117 1.0
953 124 1.0
953 131 1.0
953 138 1.0
953 145 1.0
953 152 1.0
953 159 1.0
953 166 1.0
953 173 1.0
953 180 1.0
953 187 1.0
953 194 1.0
954 102 1.0
954 109 1.0
954 116 1.0
954 123 1.0
954 130 1.0
954 137 1.0
954 144 1.0
954 151 1.0
954 158 1.0
954 165 1.0
954 172 1.0
954 179 1.0
954 186 1.0
954 193 1.0
954 200 1.0
954 207 1.0
955 115 1.0
955 122 1.0
955 129 1.0
955 136 1.0
955 143 1.0
955 150 1.0
955 157 1.0
955 164 1.0
955 171 1.0
955 178 1.0
955 185 1.0
955 192 1.0
955 199 1.0
955 206 1.0
955 213 1.0
955 220 1.0
956 128 1.0
956 135 1.0
956 142 1.0
956 149 1.0
956 156 1.0
956 163 1.0
956 170 1.0
956 177 1.0
956 184 1.0
956 191 1.0
956 198 1.0
956 205 1.0
956 212 1.0
956 219 1.0
956 226 1.0
956 233 1.0
957 141 1.0
957 148 1.0
957 155 1.0
957 162 1.0
957 169 1.0
957 176 1.0
957 183 1.0
957 190 1.0
957 197 1.0
957 204 1.0
957 211 1.0
957 218 1.0
957 225 1.0
957 232 1.0
957 239 1.0
957 246 1.0
958 154 1.0
958 161 1.0
958 168 1.0
958 175 1.0
958 182 1.0
958 189 1.0
958 196 1.0
958 203 1.0
958 210 1.0
958 217 1.0
958 224 1.0
958 231 1.0
958 238 1.0
958 245 1.0
958 252 1.0
958 259 1.0
959 167 1.0
959 174 1.0
959 181 1.0
959 188 1.0
959 195 1.0
959 202 1.0
959 209 1.0
959 216 1.0
959 223 1.0
959 230 1.0
959 237 1.0
959 244 1.0
959 251 1.0
959 258 1.0
959 265 1.0
959 272 1.0
960 180 1.0
960 187 1.0
960 194 1.0
960 201 1.0
960 208 1.0
960 215 1.0
960 222 1.0
960 229 1.0
960 236 1.0
960 243 1.0
960 250 1.0
960 257 1.0
960 264 1.0
960 271 1.0
960 278 1.0
960 285 1.0
961 193 1.0
961 200 1.0
961 207 1.0
961 214 1.0
961 221 1.0
961 228 1.0
961 235 1.0
961 242 1.0
961 249 1.0
961 256 1.0
961 263 1.0
961 270 1.0
961 277 1.0
961 284 1.0
961 291 1.0
961 298 1.0
962 206 1.0
962 213 1.0
962 220 1.0
962 227 1.0
962 234 1.0
962 241 1.0
962 248 1.0
962 255 1.0
962 262 1.0
962 269 1.0
962 276 1.0
962 283 1.0
962 290 1.0
962 297 1.0
962 304 1.0
962 311 1.0
963 219 1.0
963 226 1.0
963 233 1.0
963 240 1.0
963 247 1.0
963 254 1.0
963 261 1.0
963 268 1.0
963 275 1.0
963 282 1.0
963 289 1.0
963 296 1.0
963 303 1.0
963 310 1.0
963 317 1.0
963 324 1.0
964 232 1.0
964 239 1.0
964 246 1.0
964 253 1.0
964 260 1.0
964 267 1.0
964 274 1.0
964 281 1.0
964 288 1.0
964 295 1.0
964 302 1.0
964 309 1.0
964 316 1.0
964 323 1.0
964 330 1.0
964 337 1.0
965 245 1.0
965 252 1.0
965 259 1.0
965 266 1.0
965 273 1.0
965 280 1.0
965 287 1.0
965 294 1.0
965 301 1.0
965 308 1.0
965 315 1.0
965 322 1.0
965 329 1.0
965 336 1.0
965 343 1.0
965 350 1.0
966 258 1.0
966 265 1.0
966 272 1.0
966 279 1.0
966 286 1.0
966 293 1.0
966 300 1.0
966 307 1.0
966 314 1.0
966 321 1.0
966 328 1.0
966 335 1.0
966 342 1.0
966 349 1.0
966 356 1.0
966 363 1.0
967 271 1.0
967 278 1.0
967 285 1.0
967 292 1.0
967 299 1.0
967 306 1.0
967 313 1.0
967 320 1.0
967 327 1.0
967 334 1.0
967 341 1.0
967 348 1.0
967 355 1.0
967 362 1.0
967 369 1.0
967 376 1.0
968 284 1.0
968 291 1.0
968 298 1.0
968 305 1.0
968 312 1.0
968 319 1.0
968 326 1.0
968 333 1.0
968 340 1.0
968 347 1.0
968 354 1.0
968 361 1.0
968 368 1.0
968 375 1.0
968 382 1.0
968 389 1.0
969 297 1.0
969 304 1.0
969 311 1.0
969 318 1.0
969 325 1.0
969 332 1.0
969 339 1.0
969 346 1.0
969 353 1.0
969 360 1.0
969 367 1.0
969 374 1.0
969 381 1.0
969 388 1.0
969 395 1.0
969 402 1.0
970 310 1.0
970 317 1.0
970 324 1.0
970 331 1.0
970 338 1.0
970 345 1.0
970 352 1.0
970 359 1.0
970 366 1.0
970 373 1.0
970 380 1.0
970 387 1.0
970 394 1.0
970 401 1.0
970 408 1.0
970 415 1.0
971 323 1.0
971 330 1.0
971 337 1.0
971 344 1.0
971 351 1.0
971 358 1.0
971 365 1.0
971 372 1.0
971 379 1.0
971 386 1.0
971 393 1.0
971 400 1.0
971 407 1.0
971 414 1.0
971 421 1.0
971 428 1.0
972 336 1.0
972 343 1.0
972 350 1.0
972 357 1.0
972 364 1.0
972 371 1.0
972 378 1.0
972 385 1.0
972 392 1.0
972 399 1.0
972 406 1.0
972 413 1.0
972 420 1.0
972 427 1.0
972 434 1.0
972 441 1.0
973 349 1.0
973 356 1.0
973 363 1.0
973 370 1.0
973 377 1.0
973 384 1.0
973 391 1.0
973 398 1.0
973 405 1.0
973 412 1.0
973 419 1.0
973 426 1.0
973 433 1.0
973 440 1.0
973 447 1.0
973 454 1.0
974 362 1.0
974 369 1.0
974 376 1.0
974 383 1.0
974 390 1.0
974 397 1.0
974 404 1.0
974 411 1.0
974 418 1.0
974 425 1.0
974 432 1.0
974 439 1.0
974 446 1.0
974 453 1.0
974 460 1.0
974 467 1.0
975 375 1.0
975 382 1.0
975 389 1.0
975 396 1.0
975 403 1.0
975 410 1.0
975 417 1.0
975 424 1.0
975 431 1.0
975 438 1.0
975 445 1.0
975 452 1.0
975 459 1.0
975 466 1.0
975 473 1.0
975 480 1.0
976 388 1.0
976 395 1.0
976 402 1.0
976 409 1.0
976 416 1.0
976 423 1.0
976 430 1.0
976 437 1.0
976 444 1.0
976 451 1.0
976 458 1.0
976 465 1.0
976 472 1.0
976 479 1.0
976 486 1.0
976 493 1.0
977 401 1.0
977 408 1.0
977 415 1.0
977 422 1.0
977 429 1.0
977 436 1.0
977 443 1.0
977 450 1.0
977 457 1.0
977 464 1.0
977 471 1.0
977 478 1.0
977 485 1.0
977 492 1.0
977 499 1.0
977 506 1.0
978 414 1.0
978 421 1.0
978 428 1.0
978 435 1.0
978 442 1.0
978 449 1.0
978 456 1.0
978 463 1.0
978 470 1.0
978 477 1.0
978 484 1.0
978 491 1.0
978 498 1.0
978 505 1.0
978 512 1.0
978 519 1.0
979 427 1.0
979 434 1.0
979 441 1.0
979 448 1.0
979 455 1.0
979 462 1.0
979 469 1.0
979 476 1.0
979 483 1.0
979 490 1.0
979 497 1.0
979 504 1.0
979 511 1.0
979 518 1.0
979 525 1.0
979 532 1.0
980 440 1.0
980 447 1.0
980 454 1.0
980 461 1.0
980 468 1.0
980 475 1.0
980 482 1.0
980 489 1.0
980 496 1.0
980 503 1.0
980 510 1.0
980 517 1.0
980 524 1.0
980 531 1.0
980 538 1.0
980 545 1.0
981 453 1.0
981 460 1.0
981 467 1.0
981 474 1.0
981 481 1.0
981 488 1.0
981 495 1.0
981 502 1.0
981 509 1.0
981 516 1.0
981 523 1.0
981 530 1.0
981 537 1.0
981 544 1.0
981 551 1.0
981 558 1.0
982 466 1.0
982 473 1.0
982 480 1.0
982 487 1.0
982 494 1.0
982 501 1.0
982 508 1.0
982 515 1.0
982 522 1.0
982 529 1.0
982 536 1.0
982 543 1.0
982 550 1.0
982 557 1.0
982 564 1.0
982 571 1.0
983 479 1.0
983 486 1.0
983 493 1.0
983 500 1.0
983 507 1.0
983 514 1.0
983 521 1.0
983 528 1.0
983 535 1.0
983 542 1.0
983 549 1.0
983 556 1.0
983 563 1.0
983 570 1.0
983 577 1.0
983 584 1.0
984 492 1.0
984 499 1.0
984 506 1.0
984 513 1.0
984 520 1.0
984 527 1.0
984 534 1.0
984 541 1.0
984 548 1.0
984 555 1.0
984 562 1.0
984 569 1.0
984 576 1.0
984 583 1.0
984 590 1.0
984 597 1.0
985 505 1.0
985 512 1.0
985 519 1.0
985 526 1.0
985 533 1.0
985 540 1.0
985 547 1.0
985 554 1.0
985 561 1.0
985 568 1.0
985 575 1.0
985 582 1.0
985 589 1.0
985 596 1.0
985 603 1.0
985 610 1.0
986 518 1.0
986 525 1.0
986 532 1.0
986 539 1.0
986 546 1.0
986 553 1.0
986 560 1.0
986 567 1.0
986 574 1.0
986 581 1.0
986 588 1.0
986 595 1.0
986 602 1.0
986 609 1.0
986 616 1.0
986 623 1.0
987 531 1.0
987 538 1.0
987 545 1.0
987 552 1.0
987 559 1.0
987 566 1.0
987 573 1.0
987 580 1.0
987 587 1.0
987 594 1.0
987 601 1.0
987 608 1.0
987 615 1.0
987 622 1.0
987 629 1.0
987 636 1.0
988 544 1.0
988 551 1.0
988 558 1.0
988 565 1.0
988 572 1.0
988 579 1.0
988 586 1.0
988 593 1.0
988 600 1.0
988 607 1.0
988 614 1.0
988 621 1.0
988 628 1.0
988 635 1.0
988 642 1.0
988 649 1.0
989 557 1.0
989 564 1.0
989 571 1.0
989 578 1.0
989 585 1.0
989 592 1.0
989 599 1.0
989 606 1.0
989 613 1.0
989 620 1.0
989 627 1.0
989 634 1.0
989 641 1.0
989 648 1.0
989 655 1.0
989 662 1.0
990 570 1.0
990 577 1.0
990 584 1.0
990 591 1.0
990 598 1.0
990 605 1.0
990 612 1.0
990 619 1.0
990 626 1.0
990 633 1.0
990 640 1.0
990 647 1.0
990 654 1.0
990 661 1.0
990 668 1.0
990 675 1.0
991 583 1.0
991 590 1.0
991 597 1.0
991 604 1.0
991 611 1.0
991 618 1.0
991 625 1.0
991 632 1.0
991 639 1.0
991 646 1.0
991 653 1.0
991 660 1.0
991 667 1.0
991 674 1.0
991 681 1.0
991 688 1.0
992 596 1.0
992 603 1.0
992 610 1.0
992 617 1.0
992 624 1.0
992 631 1.0
992 638 1.0
992 645 1.0
992 652 1.0
992 659 1.0
992 666 1.0
992 673 1.0
992 680 1.0
992 687 1.0
992 694 1.0
992 701 1.0
993 609 1.0
993 616 1.0
993 623 1.0
993 630 1.0
993 637 1.0
993 644 1.0
993 651 1.0
993 658 1.0
993 665 1.0
993 672 1.0
993 679 1.0
993 686 1.0
993 693 1.0
993 700 1.0
993 707 1.0
993 714 1.0
994 622 1.0
994 629 1.0
994 636 1.0
994 643 1.0
994 650 1.0
994 657 1.0
994 664 1.0
994 671 1.0
994 678 1.0
994 685 1.0
994 692 1.0
994 699 1.0
994 706 1.0
994 713 1.0
994 720 1.0
994 727 1.0
995 635 1.0
995 642 1.0
995 649 1.0
995 656 1.0
995 663 1.0
995 670 1.0
995 677 1.0
995 684 1.0
995 691 1.0
995 698 1.0
995 705 1.0
995 712 1.0
995 719 1.0
995 726 1.0
995 733 1.0
995 740 1.0
996 648 1.0
996 655 1.0
996 662 1.0
996 669 1.0
996 676 1.0
996 683 1.0
996 690 1.0
996 697 1.0
996 704 1.0
996 711 1.0
996 718 1.0
996 725 1.0
996 732 1.0
996 739 1.0
996 746 1.0
996 753 1.0
997 661 1.0
997 668 1.0
997 675 1.0
997 682 1.0
997 689 1.0
997 696 1.0
997 703 1.0
997 710 1.0
997 717 1.0
997 724 1.0
997 731 1.0
997 738 1.0
997 745 1.0
997 752 1.0
997 759 1.0
997 766 1.0
998 674 1.0
998 681 1.0
998 688 1.0
998 695 1.0
998 702 1.0
998 709 1.0
998 716 1.0
998 723 1.0
998 730 1.0
998 737 1.0
998 744 1.0
998 751 1.0
998 758 1.0
998 765 1.0
998 772 1.0
998 779 1.0
999 687 1.0
999 694 1.0
999 701 1.0
999 708 1.0
999 715 1.0
999 722 1.0
999 729 1.0
999 736 1.0
999 743 1.0
999 750 1.0
999 757 1.0
999 764 1.0
999 771 1.0
999 778 1.0
999 785 1.0
999 792 1.0
1000 700 1.0
1000 707 1.0
1000 714 1.0
1000 721 1.0
1000 728 1.0
1000 735 1.0
1000 742 1.0
1000 749 1.0
1000 756 1.0
1000 763 1.0
1000 770 1.0
1000 777 1.0
1000 784 1.0
1000 791 1.0
1000 798 1.0
1000 805 1.0
1001 713 1.0
1001 720 1.0
1001 727 1.0
1001 734 1.0
1001 741 1.0
1001 748 1.0
1001 755 1.0
1001 762 1.0
1001 769 1.0
1001 776 1.0
1001 783 1.0
1001 790 1.0
1001 797 1.0
1001 804 1.0
1001 811 1.0
1001 818 1.0
1002 726 1.0
1002 733 1.0
1002 740 1.0
1002 747 1.0
1002 754 1.0
1002 761 1.0
1002 768 1.0
1002 775 1.0
1002 782 1.0
1002 789 1.0
1002 796 1.0
1002 803 1.0
1002 810 1.0
1002 817 1.0
1002 824 1.0
1002 831 1.0
1003 739 1.0
1003 746 1.0
1003 753 1.0
1003 760 1.0
1003 767 1.0
1003 774 1.0
1003 781 1.0
1003 788 1.0
1003 795 1.0
1003 802 1.0
1003 809 1.0
1003 816 1.0
1003 823 1.0
1003 830 1.0
1003 837 1.0
1003 844 1.0
1004 752 1.0
1004 759 1.0
1004 766 1.0
1004 773 1.0
1004 780 1.0
1004 787 1.0
1004 794 1.0
1004 801 1.0
1004 808 1.0
1004 815 1.0
1004 822 1.0
1004 829 1.0
1004 836 1.0
1004 843 1.0
1004 850 1.0
1004 857 1.0
1005 765 1.0
1005 772 1.0
1005 779 1.0
1005 786 1.0
1005 793 1.0
1005 800 1.0
1005 807 1.0
1005 814 1.0
1005 821 1.0
1005 828 1.0
1005 835 1.0
1005 842 1.0
1005 849 1.0
1005 856 1.0
1005 863 1.0
1005 870 1.0
1006 778 1.0
1006 785 1.0
1006 792 1.0
1006 799 1.0
1006 806 1.0
1006 813 1.0
1006 820 1.0
1006 827 1.0
1006 834 1.0
1006 841 1.0
1006 848 1.0
1006 855 1.0
1006 862 1.0
1006 869 1.0
1006 876 1.0
1006 883 1.0
1007 791 1.0
1007 798 1.0
1007 805 1.0
1007 812 1.0
1007 819 1.0
1007 826 1.0
1007 833 1.0
1007 840 1.0
1007 847 1.0
1007 854 1.0
1007 861 1.0
1007 868 1.0
1007 875 1.0
1007 882 1.0
1007 889 1.0
1007 896 1.0
1008 804 1.0
1008 811 1.0
1008 818 1.0
1008 825 1.0
1008 832 1.0
1008 839 1.0
1008 846 1.0
1008 853 1.0
1008 860 1.0
1008 867 1.0
1008 874 1.0
1008 881 1.0
1008 888 1.0
1008 895 1.0
1008 902 1.0
1008 909 1.0
1009 817 1.0
1009 824 1.0
1009 831 1.0
1009 838 1.0
1009 845 1.0
1009 852 1.0
1009 859 1.0
1009 866 1.0
1009 873 1.0
1009 880 1.0
1009 887 1.0
1009 894 1.0
1009 901 1.0
1009 908 1.0
1009 915 1.0
1009 922 1.0
1010 830 1.0
1010 837 1.0
1010 844 1.0
1010 851 1.0
1010 858 1.0
1010 865 1.0
1010 872 1.0
1010 879 1.0
1010 886 1.0
1010 893 1.0
1010 900 1.0
1010 907 1.0
1010 914 1.0
1010 921 1.0
1010 928 1.0
1010 935 1.0
1011 843 1.0
1011 850 1.0
1011 857 1.0
1011 864 1.0
1011 871 1.0
1011 878 1.0
1011 885 1.0
1011 892 1.0
1011 899 1.0
1011 906 1.0
1011 913 1.0
1011 920 1.0
1011 927 1.0
1011 934 1.0
1011 941 1.0
1011 948 1.0
1012 856 1.0
1012 863 1.0
1012 870 1.0
1012 877 1.0
1012 884 1.0
1012 891 1.0
1012 898 1.0
1012 905 1.0
1012 912 1.0
1012 919 1.0
1012 926 1.0
1012 933 1.0
1012 940 1.0
1012 947 1.0
1012 954 1.0
1012 961 1.0
1013 869 1.0
1013 876 1.0
1013 883 1.0
1013 890 1.0
1013 897 1.0
1013 904 1.0
1013 911 1.0
1013 918 1.0
1013 925 1.0
1013 932 1.0
1013 939 1.0
1013 946 1.0
1013 953 1.0
1013 960 1.0
1013 967 1.0
1013 974 1.0
1014 882 1.0
1014 889 1.0
1014 896 1.0
1014 903 1.0
1014 910 1.0
1014 917 1.0
1014 924 1.0
1014 931 1.0
1014 938 1.0
1014 945 1.0
1014 952 1.0
1014 959 1.0
1014 966 1.0
1014 973 1.0
1014 980 1.0
1014 987 1.0
1015 895 1.0
1015 902 1.0
1015 909 1.0
1015 916 1.0
1015 923 1.0
1015 930 1.0
1015 937 1.0
1015 944 1.0
1015 951 1.0
1015 958 1.0
1015 965 1.0
1015 972 1.0
1015 979 1.0
1015 986 1.0
1015 993 1.0
1015 1000 1.0
1016 908 1.0
1016 915 1.0
1016 922 1.0
1016 929 1.0
1016 936 1.0
1016 943 1.0
1016 950 1.0
1016 957 1.0
1016 964 1.0
1016 971 1.0
1016 978 1.0
1016 985 1.0
1016 992 1.0
1016 999 1.0
1016 1006 1.0
1016 1013 1.0
1017 921 1.0
1017 928 1.0
1017 935 1.0
1017 942 1.0
1017 949 1.0
1017 956 1.0
1017 963 1.0
1017 970 1.0
1017 977 1.0
1017 984 1.0
1017 991 1.0
1017 998 1.0
1017 1005 1.0
1017 1012 1.0
1017 1019 1.0
1017 2 1.0
1018 934 1.0
1018 941 1.0
1018 948 1.0
1018 955 1.0
1018 962 1.0
1018 969 1.0
1018 976 1.0
1018 983 1.0
1018 990 1.0
1018 997 1.0
1018 1004 1.0
1018 1011 1.0
1018 1018 1.0
1018 1 1.0
1018 8 1.0
1018 15 1.0
1019 947 1.0
1019 954 1.0
1019 961 1.0
1019 968 1.0
1019 975 1.0
1019 982 1.0
1019 989 1.0
1019 996 1.0
1019 1003 1.0
1019 1010 1.0
1019 1017 1.0
1019 1024 1.0
1019 7 1.0
1019 14 1.0
1019 21 1.0
1019 28 1.0
1020 960 1.0
1020 967 1.0
1020 974 1.0
1020 981 1.0
1020 988 1.0
1020 995 1.0
1020 1002 1.0
1020 1009 1.0
1020 1016 1.0
1020 1023 1.0
1020 6 1.0
1020 13 1.0
1020 20 1.0
1020 27 1.0
1020 34 1.0
1020 41 1.0
1021 973 1.0
1021 980 1.0
1021 987 1.0
1021 994 1.0
1021 1001 1.0
1021 1008 1.0
1021 1015 1.0
1021 1022 1.0
1021 5 1.0
1021 12 1.0
1021 19 1.0
1021 26 1.0
1021 33 1.0
1021 40 1.0
1021 47 1.0
1021 54 1.0
1022 986 1.0
1022 993 1.0
1022 1000 1.0
1022 1007 1.0
1022 1014 1.0
1022 1021 1.0
1022 4 1.0
1022 11 1.0
1022 18 1.0
1022 25 1.0
1022 32 1.0
1022 39 1.0
1022 46 1.0
1022 53 1.0
1022 60 1.0
1022 67 1.0
1023 999 1.0
1023 1006 1.0
1023 1013 1.0
1023 1020 1.0
1023 3 1.0
1023 10 1.0
1023 17 1.0
1023 24 1.0
1023 31 1.0
1023 38 1.0
1023 45 1.0
1023 52 1.0
1023 59 1.0
1023 66 1.0
1023 73 1.0
1023 80 1.0
1024 1012 1.0
1024 1019 1.0
1024 2 1.0
1024 9 1.0
1024 16 1.0
1024 23 1.0
1024 30 1.0
1024 37 1.0
1024 44 1.0
1024 51 1.0
1024 58 1.0
1024 65 1.0
1024 72 1.0
1024 79 1.0
1024 86 1.0
1024 93 1.0
